Ti_GDY 1by1 relax
ISTART =  0            (Read existing wavefunction, if there)
ISPIN  =  2         (Non-Spin polarised DFT)
MAGMOM = 19*0.0 1*0.0 3*0.0
ICHARG =  11         (Non-self-consistent: GGA/LDA band structures)
LREAL  = A       (Projection operators: automatic)
ENCUT  =  500        (Cut-off energy for plane wave basis set, in eV)
PREC   =  Accurate   (Precision level: Normal or Accurate, set Accurate when perform structure lattice relaxation calculation)
LWAVE  = .TRUE.        (Write WAVECAR or not)
LCHARG = .TRUE.        (Write CHGCAR or not)
ADDGRID= .TRUE.        (Increase grid, helps GGA convergence)
# LVTOT  = .TRUE.      (Write total electrostatic potential into LOCPOT or not)
# LVHAR  = .TRUE.      (Write ionic + Hartree electrostatic potential into LOCPOT or not)
# NELECT =             (No. of electrons: charged cells, be careful)
# LPLANE = .TRUE.      (Real space distribution, supercells)
# NWRITE = 2           (Medium-level output)
KPAR   = 4         (Divides k-grid into separate groups)
# NGXF    = 300        (FFT grid mesh density for nice charge/potential plots)
# NGYF    = 300        (FFT grid mesh density for nice charge/potential plots)
# NGZF    = 300        (FFT grid mesh density for nice charge/potential plots)
NCORE    = 24
 
Static Calculation
ISMEAR =  0            (gaussian smearing method)
SIGMA  =  0.05         (please check the width of the smearing)
LORBIT =  11           (PAW radii for projected DOS)
NEDOS  =  3100         (DOSCAR points)
NELM   =  200          (Max electronic SCF steps)
EDIFF  =  1E-06        (SCF energy convergence, in eV)

 vdW Corrections
IVDW   = 11 
LWAVE = .FALSE.
