       N       E                     dE             d eps       ncg     rms          rms(c)
DAV:   1     0.842958629607E+03    0.84296E+03   -0.31874E+04 38088   0.110E+03
DAV:   2     0.570085928251E+02   -0.78595E+03   -0.74463E+03 53888   0.233E+02
DAV:   3    -0.166074493756E+03   -0.22308E+03   -0.22174E+03 39008   0.130E+02
DAV:   4    -0.176208687796E+03   -0.10134E+02   -0.10006E+02 40728   0.355E+01
DAV:   5    -0.176476953137E+03   -0.26827E+00   -0.26616E+00 48030   0.534E+00
DAV:   6    -0.176482413300E+03   -0.54602E-02   -0.54414E-02 43082   0.772E-01
DAV:   7    -0.176482609582E+03   -0.19628E-03   -0.19611E-03 48829   0.135E-01
DAV:   8    -0.176482614493E+03   -0.49112E-05   -0.49084E-05 44543   0.196E-02
DAV:   9    -0.176482614599E+03   -0.10601E-06   -0.10565E-06 29011   0.290E-03
   1 F= -.17707491E+03 E0= -.17707491E+03  d E =-.397082E-11  mag=    -0.0000
