 vasp.6.5.0 16Dec24 (build Jun 17 2026 00:42:42) complex                        
  
 executed on             LinuxIFC date 2026.10.05  10:31:01
 running   12 mpi-ranks, on    1 nodes
 distrk:  each k-point on    3 cores,    4 groups
 distr:  one band on NCORE=   3 cores,    1 groups


--------------------------------------------------------------------------------------------------------


 INCAR:
   ISTART = 0            (Read existing wavefunction, if there)
   ISPIN = 2         (Non-Spin polarised DFT)
   MAGMOM = 19*0.0 1*0.0 3*0.0
   ICHARG = 11         (Non-self-consistent: GGA/LDA band structures)
   LREAL = A       (Projection operators: automatic)
   ENCUT = 500        (Cut-off energy for plane wave basis set, in eV)
   PREC = Accurate   (Precision level: Normal or Accurate, set Accurate when perform structure lattice relaxation calculation)
   LWAVE = .TRUE.        (Write WAVECAR or not)
   LCHARG = .TRUE.        (Write CHGCAR or not)
   ADDGRID = .TRUE.        (Increase grid, helps GGA convergence)
   KPAR = 4         (Divides k-grid into separate groups)
   NCORE = 24
   ISMEAR = 0            (gaussian smearing method)
   SIGMA = 0.05         (please check the width of the smearing)
   LORBIT = 11           (PAW radii for projected DOS)
   NEDOS = 3100         (DOSCAR points)
   NELM = 200          (Max electronic SCF steps)
   EDIFF = 1E-06        (SCF energy convergence, in eV)
   IVDW = 11
   LWAVE = .FALSE.

 POTCAR:    PAW_PBE C 08Apr2002                   
 POTCAR:    PAW_PBE H 15Jun2001                   
 POTCAR:    PAW_PBE F 08Apr2002                   
 -----------------------------------------------------------------------------
|                                                                             |
|           W    W    AA    RRRRR   N    N  II  N    N   GGGG   !!!           |
|           W    W   A  A   R    R  NN   N  II  NN   N  G    G  !!!           |
|           W    W  A    A  R    R  N N  N  II  N N  N  G       !!!           |
|           W WW W  AAAAAA  RRRRR   N  N N  II  N  N N  G  GGG   !            |
|           WW  WW  A    A  R   R   N   NN  II  N   NN  G    G                |
|           W    W  A    A  R    R  N    N  II  N    N   GGGG   !!!           |
|                                                                             |
|     The value NCORE = 24 specified in the INCAR file was overwritten,       |
|     because it was not compatible with the 3 processes available:           |
|     NCORE = 3                                                               |
|     was used instead, please check that this makes sense for your           |
|     machine.                                                                |
|                                                                             |
 -----------------------------------------------------------------------------

 POTCAR:    PAW_PBE C 08Apr2002                   
   VRHFIN =C: s2p2                                                                                  
   LEXCH  = PE                                                                                      
   EATOM  =   147.1560 eV,   10.8157 Ry                                                             
                                                                                                    
   TITEL  = PAW_PBE C 08Apr2002                                                                     
   LULTRA =        F    use ultrasoft PP ?                                                          
   IUNSCR =        1    unscreen: 0-lin 1-nonlin 2-no                                               
   RPACOR =    1.200    partial core radius                                                         
   POMASS =   12.011; ZVAL   =    4.000    mass and valenz                                          
   RCORE  =    1.500    outmost cutoff radius                                                       
   RWIGS  =    1.630; RWIGS  =    0.863    wigner-seitz radius (au A)                               
   ENMAX  =  400.000; ENMIN  =  300.000 eV                                                          
   ICORE  =        2    local potential                                                             
   LCOR   =        T    correct aug charges                                                         
   LPAW   =        T    paw PP                                                                      
   EAUG   =  644.873                                                                                
   DEXC   =    0.000                                                                                
   RMAX   =    1.529    core radius for proj-oper                                                   
   RAUG   =    1.300    factor for augmentation sphere                                              
   RDEP   =    1.501    radius for radial grids                                                     
   RDEPT  =    1.300    core radius for aug-charge                                                  
                                                                                                    
   Atomic configuration                                                                             
    4 entries                                                                                       
     n  l   j            E        occ.                                                              
     1  0  0.50      -273.3789   2.0000                                                             
     2  0  0.50       -13.7508   2.0000                                                             
     2  1  0.50        -5.2854   2.0000                                                             
     3  2  1.50        -5.4423   0.0000                                                             
   Description                                                                                      
     l       E           TYP  RCUT    TYP  RCUT                                                     
     0    -13.7508458     23  1.200                                                                 
     0     -8.2022199     23  1.200                                                                 
     1     -5.2854383     23  1.500                                                                 
     1     34.0145650     23  1.500                                                                 
     2     -5.4423304      7  1.500                                                                 
  local pseudopotential read in
  partial core-charges read in
  partial kinetic energy density read in
  atomic valenz-charges read in
  non local Contribution for L=           0  read in
    real space projection operators read in
  non local Contribution for L=           0  read in
    real space projection operators read in
  non local Contribution for L=           1  read in
    real space projection operators read in
  non local Contribution for L=           1  read in
    real space projection operators read in
    PAW grid and wavefunctions read in
 
   number of l-projection  operators is LMAX  =           4
   number of lm-projection operators is LMMAX =           8
 
 POTCAR:    PAW_PBE H 15Jun2001                   
   VRHFIN =H: ultrasoft test                                                                        
   LEXCH  = PE                                                                                      
   EATOM  =    12.4884 eV,    0.9179 Ry                                                             
                                                                                                    
   TITEL  = PAW_PBE H 15Jun2001                                                                     
   LULTRA =        F    use ultrasoft PP ?                                                          
   IUNSCR =        0    unscreen: 0-lin 1-nonlin 2-no                                               
   RPACOR =    0.000    partial core radius                                                         
   POMASS =    1.000; ZVAL   =    1.000    mass and valenz                                          
   RCORE  =    1.100    outmost cutoff radius                                                       
   RWIGS  =    0.700; RWIGS  =    0.370    wigner-seitz radius (au A)                               
   ENMAX  =  250.000; ENMIN  =  200.000 eV                                                          
   RCLOC  =    0.701    cutoff for local pot                                                        
   LCOR   =        T    correct aug charges                                                         
   LPAW   =        T    paw PP                                                                      
   EAUG   =  400.000                                                                                
   RMAX   =    1.123    core radius for proj-oper                                                   
   RAUG   =    1.200    factor for augmentation sphere                                              
   RDEP   =    1.112    radius for radial grids                                                     
   RDEPT  =    0.926    core radius for aug-charge                                                  
                                                                                                    
   Atomic configuration                                                                             
    2 entries                                                                                       
     n  l   j            E        occ.                                                              
     1  0  0.50        -6.4927   1.0000                                                             
     2  1  0.50        -3.4015   0.0000                                                             
   Description                                                                                      
     l       E           TYP  RCUT    TYP  RCUT                                                     
     0     -6.4927494     23  1.100                                                                 
     0      6.8029130     23  1.100                                                                 
     1     -4.0817478     23  1.100                                                                 
  local pseudopotential read in
  atomic valenz-charges read in
  non local Contribution for L=           0  read in
    real space projection operators read in
  non local Contribution for L=           0  read in
    real space projection operators read in
  non local Contribution for L=           1  read in
    real space projection operators read in
    PAW grid and wavefunctions read in
 
   number of l-projection  operators is LMAX  =           3
   number of lm-projection operators is LMMAX =           5
 
 POTCAR:    PAW_PBE F 08Apr2002                   
   VRHFIN =F: s2p5                                                                                  
   LEXCH  = PE                                                                                      
   EATOM  =   659.6475 eV,   48.4827 Ry                                                             
                                                                                                    
   TITEL  = PAW_PBE F 08Apr2002                                                                     
   LULTRA =        F    use ultrasoft PP ?                                                          
   IUNSCR =        1    unscreen: 0-lin 1-nonlin 2-no                                               
   RPACOR =    1.200    partial core radius                                                         
   POMASS =   18.998; ZVAL   =    7.000    mass and valenz                                          
   RCORE  =    1.520    outmost cutoff radius                                                       
   RWIGS  =    1.500; RWIGS  =    0.794    wigner-seitz radius (au A)                               
   ENMAX  =  400.000; ENMIN  =  300.000 eV                                                          
   ICORE  =        2    local potential                                                             
   LCOR   =        T    correct aug charges                                                         
   LPAW   =        T    paw PP                                                                      
   EAUG   =  613.614                                                                                
   RMAX   =    1.555    core radius for proj-oper                                                   
   RAUG   =    1.300    factor for augmentation sphere                                              
   RDEP   =    1.539    radius for radial grids                                                     
   RDEPT  =    1.299    core radius for aug-charge                                                  
                                                                                                    
   Atomic configuration                                                                             
    4 entries                                                                                       
     n  l   j            E        occ.                                                              
     1  0  0.50      -663.3661   2.0000                                                             
     2  0  0.50       -29.8995   2.0000                                                             
     2  1  0.50       -11.1114   5.0000                                                             
     3  2  1.50       -10.8847   0.0000                                                             
   Description                                                                                      
     l       E           TYP  RCUT    TYP  RCUT                                                     
     0    -29.8995018     23  1.200                                                                 
     0     -9.5240782     23  1.200                                                                 
     1    -11.1113914     23  1.520                                                                 
     1      1.3605826     23  1.520                                                                 
     2    -10.8846608      7  1.500                                                                 
  local pseudopotential read in
  partial core-charges read in
  partial kinetic energy density read in
  atomic valenz-charges read in
  non local Contribution for L=           0  read in
    real space projection operators read in
  non local Contribution for L=           0  read in
    real space projection operators read in
  non local Contribution for L=           1  read in
    real space projection operators read in
  non local Contribution for L=           1  read in
    real space projection operators read in
    PAW grid and wavefunctions read in
 
   number of l-projection  operators is LMAX  =           4
   number of lm-projection operators is LMMAX =           8
 
 Optimization of the real space projectors (new method)

 maximal supplied QI-value         = 25.13
 optimisation between [QCUT,QGAM] = [ 11.31, 22.87] = [ 35.82,146.48] Ry 
 Optimized for a Real-space Cutoff    1.03 Angstroem

   l    n(q)    QCUT    max X(q) W(low)/X(q) W(high)/X(q)  e(spline) 
   0      7    11.310   115.676    0.20E-03    0.90E-03    0.20E-06
   0      7    11.310    87.132    0.20E-03    0.89E-03    0.19E-06
   1      6    11.310     4.429    0.16E-03    0.28E-03    0.12E-06
   1      6    11.310     2.733    0.12E-03    0.21E-03    0.99E-07
 Optimization of the real space projectors (new method)

 maximal supplied QI-value         = 34.20
 optimisation between [QCUT,QGAM] = [ 11.29, 22.57] = [ 35.68,142.71] Ry 
 Optimized for a Real-space Cutoff    1.20 Angstroem

   l    n(q)    QCUT    max X(q) W(low)/X(q) W(high)/X(q)  e(spline) 
   0      8    11.287    19.460    0.22E-03    0.50E-03    0.19E-06
   0      8    11.287    12.209    0.21E-03    0.48E-03    0.18E-06
   1      8    11.287     4.655    0.21E-03    0.11E-04    0.26E-06
 Optimization of the real space projectors (new method)

 maximal supplied QI-value         = 24.76
 optimisation between [QCUT,QGAM] = [ 11.39, 22.77] = [ 36.31,145.25] Ry 
 Optimized for a Real-space Cutoff    1.10 Angstroem

   l    n(q)    QCUT    max X(q) W(low)/X(q) W(high)/X(q)  e(spline) 
   0      7    11.387    14.049    0.19E-03    0.36E-03    0.12E-06
   0      7    11.387     8.945    0.22E-03    0.47E-03    0.17E-06
   1      7    11.387     7.086    0.20E-03    0.70E-03    0.23E-06
   1      7    11.387     6.747    0.18E-03    0.60E-03    0.21E-06
  PAW_PBE C 08Apr2002                   :
 energy of atom  1       EATOM= -147.1560
 kinetic energy error for atom=    0.0076 (will be added to EATOM!!)
  PAW_PBE H 15Jun2001                   :
 energy of atom  2       EATOM=  -12.4884
 kinetic energy error for atom=    0.0020 (will be added to EATOM!!)
  PAW_PBE F 08Apr2002                   :
 energy of atom  3       EATOM= -659.6475
 kinetic energy error for atom=    0.0354 (will be added to EATOM!!)
 
 
 POSCAR: AA
  positions in direct lattice
  No initial velocities read in
 IVDW         = 11
 VDW_S6       =    1.0000
 VDW_S8       =    0.7220
 VDW_SR       =    1.2170
 VDW_RADIUS   =   50.2022 A
 VDW_CNRADIUS =   21.1671 A


 exchange-correlation table for PE
   RHO(1)=    0.500       N(1)  =     2000
   RHO(2)=  100.500       N(2)  =     4000
 


--------------------------------------------------------------------------------------------------------


 ion  position               nearest neighbor table
   1  0.129  0.988  0.321-   7 1.40   6 1.43   5 1.43
   2  0.977  0.139  0.321-   8 1.40   4 1.43   6 1.43
   3  0.826  0.836  0.320-   9 1.40   5 1.43   4 1.43
   4  0.826  0.988  0.320-  10 1.40   2 1.43   3 1.43
   5  0.977  0.836  0.321-  11 1.40   3 1.43   1 1.43
   6  0.129  0.139  0.321-  12 1.40   1 1.43   2 1.43
   7  0.276  0.988  0.320-  13 1.23   1 1.40
   8  0.977  0.287  0.321-  14 1.23   2 1.40
   9  0.678  0.689  0.320-  15 1.23   3 1.40
  10  0.679  0.988  0.319-  16 1.23   4 1.40
  11  0.977  0.689  0.321-  17 1.23   5 1.40
  12  0.276  0.287  0.321-  18 1.23   6 1.40
  13  0.407  0.988  0.319-   7 1.23  16 1.34
  14  0.978  0.417  0.322-   8 1.23  17 1.34
  15  0.548  0.559  0.320-   9 1.23  18 1.34
  16  0.548  0.987  0.319-  10 1.23  13 1.34
  17  0.978  0.559  0.322-  11 1.23  14 1.34
  18  0.406  0.417  0.320-  12 1.23  15 1.34
  19  0.587  0.290  0.481-  20 1.10  21 1.36  23 1.36  22 1.36
  20  0.596  0.296  0.536-  19 1.10
  21  0.662  0.442  0.452-  19 1.36
  22  0.427  0.211  0.468-  19 1.36
  23  0.659  0.208  0.454-  19 1.36
 
  LATTYP: Found a triclinic cell.
 ALAT       =     9.4553675339
 B/A-ratio  =     3.8964881655
 C/A-ratio  =     1.0004259884
 COS(alpha) =     0.0004254243
 COS(beta)  =     0.4999480667
 COS(gamma) =     0.7275278190
  
  Lattice vectors:
  
 A1 = (  -9.4552721227,  -0.0018666701,  -0.0424358656)
 A2 = ( -26.8905099899, -15.4728154623,  19.8715635581)
 A3 = (  -4.7307988482,   8.1914249661,  -0.0161498221)


Analysis of symmetry for initial positions (statically):
=====================================================================
 Subroutine PRICEL returns:
 Original cell was already a primitive cell.
 

 Routine SETGRP: Setting up the symmetry group for a 
 triclinic supercell.


 Subroutine GETGRP returns: Found  1 space group operations
 (whereof  1 operations were pure point group operations)
 out of a pool of  2 trial point group operations.


The static configuration has the point symmetry C_1 .


Analysis of symmetry for dynamics (positions and initial velocities):
=====================================================================
 Subroutine PRICEL returns:
 Original cell was already a primitive cell.
 

 Routine SETGRP: Setting up the symmetry group for a 
 triclinic supercell.


 Subroutine GETGRP returns: Found  1 space group operations
 (whereof  1 operations were pure point group operations)
 out of a pool of  2 trial point group operations.


The dynamic configuration has the point symmetry C_1 .


Analysis of structural, dynamic, and magnetic symmetry:
=====================================================================
 Subroutine PRICEL returns:
 Original cell was already a primitive cell.
 

 Routine SETGRP: Setting up the symmetry group for a 
 triclinic supercell.


 Subroutine GETGRP returns: Found  1 space group operations
 (whereof  1 operations were pure point group operations)
 out of a pool of  2 trial point group operations.


The overall configuration has the point symmetry C_1 .


 Subroutine INISYM returns: Found  1 space group operations
 (whereof  1 operations are pure point group operations),
 and found     1 'primitive' translations


----------------------------------------------------------------------------------------

                                     Primitive cell                                     

  volume of cell :    1549.3626

  direct lattice vectors                    reciprocal lattice vectors
     9.455272123  0.001866670  0.042435866     0.105796473  0.061079869 -0.010567932
    -4.730798848  8.191424966 -0.016149822     0.000001023  0.122068437 -0.005597451
     1.468980804  0.917501150 20.009007376    -0.000224376 -0.000031016  0.049995387

  length of vectors
     9.455367534  9.459395411 20.083826556     0.122618617  0.122196705  0.049995900

  position of ions in fractional coordinates (direct lattice)
     0.128534740  0.987575094  0.320669225
     0.977188994  0.139031938  0.320977467
     0.825830173  0.836358959  0.320156500
     0.826010722  0.987837823  0.320086506
     0.977024439  0.836181093  0.320831391
     0.128603712  0.138936267  0.320851829
     0.276286986  0.987584148  0.319990364
     0.977426960  0.286769203  0.321475010
     0.678075514  0.689120171  0.319604638
     0.678585613  0.987822048  0.319194198
     0.977260175  0.688652943  0.321183239
     0.276313931  0.286624745  0.320505231
     0.406681029  0.987536437  0.319237915
     0.977875828  0.417230487  0.321666569
     0.547644486  0.559117211  0.319508839
     0.548183824  0.987446385  0.318900202
     0.977819097  0.558689767  0.321552986
     0.406285200  0.417381392  0.319858441
     0.586657804  0.289700700  0.481449356
     0.595782946  0.296309013  0.535745851
     0.662007721  0.442111047  0.451853289
     0.426796947  0.210557047  0.468066315
     0.659014115  0.207655531  0.454121288

  ion indices of the primitive-cell ions
   primitive index   ion index
                 1           1
                 2           2
                 3           3
                 4           4
                 5           5
                 6           6
                 7           7
                 8           8
                 9           9
                10          10
                11          11
                12          12
                13          13
                14          14
                15          15
                16          16
                17          17
                18          18
                19          19
                20          20
                21          21
                22          22
                23          23

----------------------------------------------------------------------------------------

 
 
 KPOINTS: K-Path Generated by VASPKIT.            

Interpolating k-points between supplied coordinates.

 Line segments in fractional coordinates (reciprocal lattice):
    0.000000  0.000000  0.000000  ...  0.500000  0.000000  0.000000
    0.000000  0.500000  0.000000  ...  0.000000  0.000000  0.000000
    0.000000  0.000000  0.000000  ...  0.000000  0.000000  0.500000
    0.500000  0.500000  0.500000  ...  0.000000  0.000000  0.000000
    0.000000  0.000000  0.000000  ...  0.000000  0.500000  0.500000
    0.500000  0.000000  0.500000  ...  0.000000  0.000000  0.000000
    0.000000  0.000000  0.000000  ...  0.500000  0.500000  0.000000

 Generated    20 points on each line segment, for a total of    140 k-points:

 Following reciprocal coordinates:
            Coordinates               Weight
  0.000000  0.000000  0.000000      0.007143
  0.026316  0.000000  0.000000      0.007143
  0.052632  0.000000  0.000000      0.007143
  0.078947  0.000000  0.000000      0.007143
  0.105263  0.000000  0.000000      0.007143
  0.131579  0.000000  0.000000      0.007143
  0.157895  0.000000  0.000000      0.007143
  0.184211  0.000000  0.000000      0.007143
  0.210526  0.000000  0.000000      0.007143
  0.236842  0.000000  0.000000      0.007143
  0.263158  0.000000  0.000000      0.007143
  0.289474  0.000000  0.000000      0.007143
  0.315789  0.000000  0.000000      0.007143
  0.342105  0.000000  0.000000      0.007143
  0.368421  0.000000  0.000000      0.007143
  0.394737  0.000000  0.000000      0.007143
  0.421053  0.000000  0.000000      0.007143
  0.447368  0.000000  0.000000      0.007143
  0.473684  0.000000  0.000000      0.007143
  0.500000  0.000000  0.000000      0.007143
  0.000000  0.500000  0.000000      0.007143
  0.000000  0.473684  0.000000      0.007143
  0.000000  0.447368  0.000000      0.007143
  0.000000  0.421053  0.000000      0.007143
  0.000000  0.394737  0.000000      0.007143
  0.000000  0.368421  0.000000      0.007143
  0.000000  0.342105  0.000000      0.007143
  0.000000  0.315789  0.000000      0.007143
  0.000000  0.289474  0.000000      0.007143
  0.000000  0.263158  0.000000      0.007143
  0.000000  0.236842  0.000000      0.007143
  0.000000  0.210526  0.000000      0.007143
  0.000000  0.184211  0.000000      0.007143
  0.000000  0.157895  0.000000      0.007143
  0.000000  0.131579  0.000000      0.007143
  0.000000  0.105263  0.000000      0.007143
  0.000000  0.078947  0.000000      0.007143
  0.000000  0.052632  0.000000      0.007143
  0.000000  0.026316  0.000000      0.007143
  0.000000  0.000000  0.000000      0.007143
  0.000000  0.000000  0.000000      0.007143
  0.000000  0.000000  0.026316      0.007143
  0.000000  0.000000  0.052632      0.007143
  0.000000  0.000000  0.078947      0.007143
  0.000000  0.000000  0.105263      0.007143
  0.000000  0.000000  0.131579      0.007143
  0.000000  0.000000  0.157895      0.007143
  0.000000  0.000000  0.184211      0.007143
  0.000000  0.000000  0.210526      0.007143
  0.000000  0.000000  0.236842      0.007143
  0.000000  0.000000  0.263158      0.007143
  0.000000  0.000000  0.289474      0.007143
  0.000000  0.000000  0.315789      0.007143
  0.000000  0.000000  0.342105      0.007143
  0.000000  0.000000  0.368421      0.007143
  0.000000  0.000000  0.394737      0.007143
  0.000000  0.000000  0.421053      0.007143
  0.000000  0.000000  0.447368      0.007143
  0.000000  0.000000  0.473684      0.007143
  0.000000  0.000000  0.500000      0.007143
  0.500000  0.500000  0.500000      0.007143
  0.473684  0.473684  0.473684      0.007143
  0.447368  0.447368  0.447368      0.007143
  0.421053  0.421053  0.421053      0.007143
  0.394737  0.394737  0.394737      0.007143
  0.368421  0.368421  0.368421      0.007143
  0.342105  0.342105  0.342105      0.007143
  0.315789  0.315789  0.315789      0.007143
  0.289474  0.289474  0.289474      0.007143
  0.263158  0.263158  0.263158      0.007143
  0.236842  0.236842  0.236842      0.007143
  0.210526  0.210526  0.210526      0.007143
  0.184211  0.184211  0.184211      0.007143
  0.157895  0.157895  0.157895      0.007143
  0.131579  0.131579  0.131579      0.007143
  0.105263  0.105263  0.105263      0.007143
  0.078947  0.078947  0.078947      0.007143
  0.052632  0.052632  0.052632      0.007143
  0.026316  0.026316  0.026316      0.007143
  0.000000  0.000000  0.000000      0.007143
  0.000000  0.000000  0.000000      0.007143
  0.000000  0.026316  0.026316      0.007143
  0.000000  0.052632  0.052632      0.007143
  0.000000  0.078947  0.078947      0.007143
  0.000000  0.105263  0.105263      0.007143
  0.000000  0.131579  0.131579      0.007143
  0.000000  0.157895  0.157895      0.007143
  0.000000  0.184211  0.184211      0.007143
  0.000000  0.210526  0.210526      0.007143
  0.000000  0.236842  0.236842      0.007143
  0.000000  0.263158  0.263158      0.007143
  0.000000  0.289474  0.289474      0.007143
  0.000000  0.315789  0.315789      0.007143
  0.000000  0.342105  0.342105      0.007143
  0.000000  0.368421  0.368421      0.007143
  0.000000  0.394737  0.394737      0.007143
  0.000000  0.421053  0.421053      0.007143
  0.000000  0.447368  0.447368      0.007143
  0.000000  0.473684  0.473684      0.007143
  0.000000  0.500000  0.500000      0.007143
  0.500000  0.000000  0.500000      0.007143
  0.473684  0.000000  0.473684      0.007143
  0.447368  0.000000  0.447368      0.007143
  0.421053  0.000000  0.421053      0.007143
  0.394737  0.000000  0.394737      0.007143
  0.368421  0.000000  0.368421      0.007143
  0.342105  0.000000  0.342105      0.007143
  0.315789  0.000000  0.315789      0.007143
  0.289474  0.000000  0.289474      0.007143
  0.263158  0.000000  0.263158      0.007143
  0.236842  0.000000  0.236842      0.007143
  0.210526  0.000000  0.210526      0.007143
  0.184211  0.000000  0.184211      0.007143
  0.157895  0.000000  0.157895      0.007143
  0.131579  0.000000  0.131579      0.007143
  0.105263  0.000000  0.105263      0.007143
  0.078947  0.000000  0.078947      0.007143
  0.052632  0.000000  0.052632      0.007143
  0.026316  0.000000  0.026316      0.007143
  0.000000  0.000000  0.000000      0.007143
  0.000000  0.000000  0.000000      0.007143
  0.026316  0.026316  0.000000      0.007143
  0.052632  0.052632  0.000000      0.007143
  0.078947  0.078947  0.000000      0.007143
  0.105263  0.105263  0.000000      0.007143
  0.131579  0.131579  0.000000      0.007143
  0.157895  0.157895  0.000000      0.007143
  0.184211  0.184211  0.000000      0.007143
  0.210526  0.210526  0.000000      0.007143
  0.236842  0.236842  0.000000      0.007143
  0.263158  0.263158  0.000000      0.007143
  0.289474  0.289474  0.000000      0.007143
  0.315789  0.315789  0.000000      0.007143
  0.342105  0.342105  0.000000      0.007143
  0.368421  0.368421  0.000000      0.007143
  0.394737  0.394737  0.000000      0.007143
  0.421053  0.421053  0.000000      0.007143
  0.447368  0.447368  0.000000      0.007143
  0.473684  0.473684  0.000000      0.007143
  0.500000  0.500000  0.000000      0.007143

 Following cartesian coordinates:
            Coordinates               Weight
  0.000000  0.000000  0.000000      0.007143
  0.002784  0.001607 -0.000278      0.007143
  0.005568  0.003215 -0.000556      0.007143
  0.008352  0.004822 -0.000834      0.007143
  0.011136  0.006429 -0.001112      0.007143
  0.013921  0.008037 -0.001391      0.007143
  0.016705  0.009644 -0.001669      0.007143
  0.019489  0.011252 -0.001947      0.007143
  0.022273  0.012859 -0.002225      0.007143
  0.025057  0.014466 -0.002503      0.007143
  0.027841  0.016074 -0.002781      0.007143
  0.030625  0.017681 -0.003059      0.007143
  0.033409  0.019288 -0.003337      0.007143
  0.036194  0.020896 -0.003615      0.007143
  0.038978  0.022503 -0.003893      0.007143
  0.041762  0.024110 -0.004172      0.007143
  0.044546  0.025718 -0.004450      0.007143
  0.047330  0.027325 -0.004728      0.007143
  0.050114  0.028933 -0.005006      0.007143
  0.052898  0.030540 -0.005284      0.007143
  0.000001  0.061034 -0.002799      0.007143
  0.000000  0.057822 -0.002651      0.007143
  0.000000  0.054610 -0.002504      0.007143
  0.000000  0.051397 -0.002357      0.007143
  0.000000  0.048185 -0.002210      0.007143
  0.000000  0.044973 -0.002062      0.007143
  0.000000  0.041760 -0.001915      0.007143
  0.000000  0.038548 -0.001768      0.007143
  0.000000  0.035336 -0.001620      0.007143
  0.000000  0.032123 -0.001473      0.007143
  0.000000  0.028911 -0.001326      0.007143
  0.000000  0.025699 -0.001178      0.007143
  0.000000  0.022486 -0.001031      0.007143
  0.000000  0.019274 -0.000884      0.007143
  0.000000  0.016062 -0.000737      0.007143
  0.000000  0.012849 -0.000589      0.007143
  0.000000  0.009637 -0.000442      0.007143
  0.000000  0.006425 -0.000295      0.007143
  0.000000  0.003212 -0.000147      0.007143
  0.000000  0.000000  0.000000      0.007143
  0.000000  0.000000  0.000000      0.007143
 -0.000006 -0.000001  0.001316      0.007143
 -0.000012 -0.000002  0.002631      0.007143
 -0.000018 -0.000002  0.003947      0.007143
 -0.000024 -0.000003  0.005263      0.007143
 -0.000030 -0.000004  0.006578      0.007143
 -0.000035 -0.000005  0.007894      0.007143
 -0.000041 -0.000006  0.009210      0.007143
 -0.000047 -0.000007  0.010525      0.007143
 -0.000053 -0.000007  0.011841      0.007143
 -0.000059 -0.000008  0.013157      0.007143
 -0.000065 -0.000009  0.014472      0.007143
 -0.000071 -0.000010  0.015788      0.007143
 -0.000077 -0.000011  0.017104      0.007143
 -0.000083 -0.000011  0.018419      0.007143
 -0.000089 -0.000012  0.019735      0.007143
 -0.000094 -0.000013  0.021051      0.007143
 -0.000100 -0.000014  0.022366      0.007143
 -0.000106 -0.000015  0.023682      0.007143
 -0.000112 -0.000016  0.024998      0.007143
  0.052787  0.091559  0.016915      0.007143
  0.050008  0.086740  0.016025      0.007143
  0.047230  0.081921  0.015134      0.007143
  0.044452  0.077102  0.014244      0.007143
  0.041674  0.072283  0.013354      0.007143
  0.038895  0.067464  0.012464      0.007143
  0.036117  0.062645  0.011573      0.007143
  0.033339  0.057827  0.010683      0.007143
  0.030561  0.053008  0.009793      0.007143
  0.027782  0.048189  0.008903      0.007143
  0.025004  0.043370  0.008012      0.007143
  0.022226  0.038551  0.007122      0.007143
  0.019448  0.033732  0.006232      0.007143
  0.016669  0.028913  0.005342      0.007143
  0.013891  0.024094  0.004451      0.007143
  0.011113  0.019276  0.003561      0.007143
  0.008335  0.014457  0.002671      0.007143
  0.005556  0.009638  0.001781      0.007143
  0.002778  0.004819  0.000890      0.007143
 -0.000000 -0.000000  0.000000      0.007143
  0.000000  0.000000  0.000000      0.007143
 -0.000006  0.003212  0.001168      0.007143
 -0.000012  0.006423  0.002337      0.007143
 -0.000018  0.009635  0.003505      0.007143
 -0.000024  0.012846  0.004673      0.007143
 -0.000029  0.016058  0.005842      0.007143
 -0.000035  0.019269  0.007010      0.007143
 -0.000041  0.022481  0.008179      0.007143
 -0.000047  0.025692  0.009347      0.007143
 -0.000053  0.028904  0.010515      0.007143
 -0.000059  0.032115  0.011684      0.007143
 -0.000065  0.035327  0.012852      0.007143
 -0.000071  0.038538  0.014020      0.007143
 -0.000076  0.041750  0.015189      0.007143
 -0.000082  0.044961  0.016357      0.007143
 -0.000088  0.048173  0.017526      0.007143
 -0.000094  0.051384  0.018694      0.007143
 -0.000100  0.054596  0.019862      0.007143
 -0.000106  0.057807  0.021031      0.007143
 -0.000112  0.061019  0.022199      0.007143
  0.052786  0.030524  0.019714      0.007143
  0.050008  0.028918  0.018676      0.007143
  0.047230  0.027311  0.017639      0.007143
  0.044451  0.025705  0.016601      0.007143
  0.041673  0.024098  0.015563      0.007143
  0.038895  0.022492  0.014526      0.007143
  0.036117  0.020885  0.013488      0.007143
  0.033339  0.019279  0.012451      0.007143
  0.030560  0.017672  0.011413      0.007143
  0.027782  0.016065  0.010376      0.007143
  0.025004  0.014459  0.009338      0.007143
  0.022226  0.012852  0.008301      0.007143
  0.019447  0.011246  0.007263      0.007143
  0.016669  0.009639  0.006225      0.007143
  0.013891  0.008033  0.005188      0.007143
  0.011113  0.006426  0.004150      0.007143
  0.008335  0.004820  0.003113      0.007143
  0.005556  0.003213  0.002075      0.007143
  0.002778  0.001607  0.001038      0.007143
 -0.000000 -0.000000  0.000000      0.007143
  0.000000  0.000000  0.000000      0.007143
  0.002784  0.004820 -0.000425      0.007143
  0.005568  0.009639 -0.000851      0.007143
  0.008352  0.014459 -0.001276      0.007143
  0.011137  0.019279 -0.001702      0.007143
  0.013921  0.024098 -0.002127      0.007143
  0.016705  0.028918 -0.002552      0.007143
  0.019489  0.033738 -0.002978      0.007143
  0.022273  0.038558 -0.003403      0.007143
  0.025057  0.043377 -0.003829      0.007143
  0.027841  0.048197 -0.004254      0.007143
  0.030626  0.053017 -0.004679      0.007143
  0.033410  0.057836 -0.005105      0.007143
  0.036194  0.062656 -0.005530      0.007143
  0.038978  0.067476 -0.005956      0.007143
  0.041762  0.072295 -0.006381      0.007143
  0.044546  0.077115 -0.006806      0.007143
  0.047330  0.081935 -0.007232      0.007143
  0.050115  0.086754 -0.007657      0.007143
  0.052899  0.091574 -0.008083      0.007143
 


--------------------------------------------------------------------------------------------------------




 Dimension of arrays:
   k-points           NKPTS =    140   k-points in BZ     NKDIM =    140   number of bands    NBANDS=     61
   number of dos      NEDOS =   3100   number of ions     NIONS =     23
   non local maximal  LDIM  =      4   non local SUM 2l+1 LMDIM =      8
   total plane-waves  NPLWV = 735000
   max r-space proj   IRMAX =   3473   max aug-charges    IRDMAX=  48445
   dimension x,y,z NGX =    70 NGY =   70 NGZ =  150
   dimension x,y,z NGXF=   140 NGYF=  140 NGZF=  300
   support grid    NGXF=   280 NGYF=  280 NGZF=  600
   ions per type =              19   1   3
   NGX,Y,Z   is equivalent  to a cutoff of  12.31, 12.30, 12.42 a.u.
   NGXF,Y,Z  is equivalent  to a cutoff of  24.62, 24.60, 24.83 a.u.

 SYSTEM =  unknown system                          
 POSCAR =  AA                                      

 Startparameter for this run:
   NWRITE =      2    write-flag & timer
   PREC   = accura    normal or accurate (medium, high low for compatibility)
   ISTART =      0    job   : 0-new  1-cont  2-samecut
   ICHARG =     11    charge: 1-file 2-atom 10-const
   ISPIN  =      2    spin polarized calculation?
   LNONCOLLINEAR =      F non collinear calculations
   LSORBIT =      F    spin-orbit coupling
   INIWAV =      1    electr: 0-lowe 1-rand  2-diag
   LASPH  =      F    aspherical Exc in radial PAW
 Electronic Relaxation 1
   ENCUT  =  500.0 eV  36.75 Ry    6.06 a.u.  17.24 17.25 36.62*2*pi/ulx,y,z
   ENINI  =  500.0     initial cutoff
   ENAUG  =  644.9 eV  augmentation charge cutoff
   NELM   =    200;   NELMIN=  2; NELMDL= -5     # of ELM steps 
   EDIFF  = 0.1E-05   stopping-criterion for ELM
   LREAL  =      T    real-space projection
   NLSPLINE    = F    spline interpolate recip. space projectors
   LCOMPAT=      F    compatible to vasp.4.4
   GGA_COMPAT  = T    GGA compatible to vasp.4.4-vasp.4.6
   LMAXPAW     = -100 max onsite density
   LMAXMIX     =    2 max onsite mixed and CHGCAR
   VOSKOWN=      0    Vosko Wilk Nusair interpolation
   ROPT   =   -0.00025  -0.00025  -0.00025
 Ionic relaxation
   EDIFFG = 0.1E-04   stopping-criterion for IOM
   NSW    =      0    number of steps for IOM
   NBLOCK =      1;   KBLOCK =      1    inner block; outer block 
   IBRION =     -1    ionic relax: 0-MD 1-quasi-New 2-CG
   NFREE  =      0    steps in history (QN), initial steepest desc. (CG)
   ISIF   =      2    stress and relaxation
   IWAVPR =     10    prediction:  0-non 1-charg 2-wave 3-comb
   ISYM   =      2    0-nonsym 1-usesym 2-fastsym
   LCORR  =      T    Harris-Foulkes like correction to forces

   POTIM  = 0.5000    time-step for ionic-motion
   TEIN   =    0.0    initial temperature
   TEBEG  =    0.0;   TEEND  =   0.0 temperature during run
   SMASS  =  -3.00    Nose mass-parameter (am)
   estimated Nose-frequenzy (Omega)   =  0.10E-29 period in steps = 0.13E+47 mass=  -0.204E-26a.u.
   SCALEE = 1.0000    scale energy and forces
   NPACO  =    256;   APACO  = 10.0  distance and # of slots for P.C.
   PSTRESS=    0.0 pullay stress

  Mass of Ions in am
   POMASS =  12.01  1.00 19.00
  Ionic Valenz
   ZVAL   =   4.00  1.00  7.00
  Atomic Wigner-Seitz radii
   RWIGS  =  -1.00 -1.00 -1.00
  virtual crystal weights 
   VCA    =   1.00  1.00  1.00
   NELECT =      98.0000    total number of electrons
   NUPDOWN=      -1.0000    fix difference up-down

 DOS related values:
   EMIN   =  10.00;   EMAX   =-10.00  energy-range for DOS
   EFERMI =   0.00;   METHOD = LEGACY      
   ISMEAR =     0;   SIGMA  =   0.05  broadening in eV -4-tet -1-fermi 0-gaus
   EFERMI_NEDOS =   21; number of points for ismear=-14 and -15

 Electronic relaxation 2 (details)
   IALGO  =     38    algorithm
   LDIAG  =      T    sub-space diagonalisation (order eigenvalues)
   LSUBROT=      F    optimize rotation matrix (better conditioning)
   TURBO    =      0    0=normal 1=particle mesh
   IRESTART =      0    0=no restart 2=restart with 2 vectors
   NREBOOT  =      0    no. of reboots
   NMIN     =      0    reboot dimension
   EREF     =   0.00    reference energy to select bands
   IMIX   =      4    mixing-type and parameters
     AMIX     =   0.40;   BMIX     =  1.00
     AMIX_MAG =   1.60;   BMIX_MAG =  1.00
     AMIN     =   0.10
     WC   =   100.;   INIMIX=   1;  MIXPRE=   1;  MAXMIX= -45

 Intra band minimization:
   WEIMIN = 0.0000     energy-eigenvalue tresh-hold
   EBREAK =  0.41E-08  absolut break condition
   DEPER  =   0.30     relativ break condition  

   TIME   =   0.40     timestep for ELM

  volume/ion in A,a.u.               =      67.36       454.59
  Fermi-wavevector in a.u.,A,eV,Ry     =   0.652278  1.232626  5.788818  0.425466
  Thomas-Fermi vector in A             =   1.722147
 
 Write flags
   LWAVE        =      T    write WAVECAR
   LDOWNSAMPLE  =      F    k-point downsampling of WAVECAR
   LCHARG       =      T    write CHGCAR
   LVTOT        =      F    write LOCPOT, total local potential
   LVHAR        =      F    write LOCPOT, Hartree potential only
   WRT_POTENTIAL= false  ! write potential to hdf5 file
   LELF         =      F    write electronic localiz. function (ELF)
   LORBIT       =     11    0 simple, 1 ext, 2 COOP (PROOUT), +10 PAW based schemes


 Python interface
   PLUGINS active      =      F    recompile with -DPLUGINS to activate
 
 Dipole corrections
   LMONO      =      F    monopole corrections only (constant potential shift)
   LDIPOL     =      F    correct potential (dipole corrections)
   IDIPOL     =      0    1-x, 2-y, 3-z, 4-all directions 
   EPSILON    =  1.0000000 bulk dielectric constant
   LVACPOTAV  =      F  vacuum potentials using an averaging scheme for the charge density
   VACPOTFLAT =  0.1000000 required flatness to determine vacuum potential
 
Coulomb truncation method
  LTRUNCATE          =      F  Coulomb kernel truncation to be used
  IDIMENSIONALITY    =      3  Dimensionality of cutoff (0 molecules / 2 surfaces)
  ISURFACE           =     -1  Direction of surface normal
  LCOARSEN           =      F  Coarsen the charge grid before padding, preferred

 
 Exchange correlation treatment:
   GGA     = PE    functional components
   XC_C    = 1    coefficients multiplying the functional components
   LIBXC   =     F    Libxc                    
   VOSKOWN =     0    Vosko Wilk Nusair interpolation
   LHFCALC =     F    Hartree Fock is set to
   LHFONE  =     F    Hartree Fock one center treatment
   AEXX    =    0.0000 exact exchange contribution

 Parameters of functionals:
   PE:
     No parameter
 
 Van der Waals corrections
   IVDW    =    11    specifies the selected vdW correction

 Linear response parameters
   LEPSILON=     F    determine dielectric tensor
   LRPA    =     F    only Hartree local field effects (RPA)
   LNABLA  =     F    use nabla operator in PAW spheres
   LVEL    =     F    velocity operator in full k-point grid
   CSHIFT  =0.1000    complex shift for real part using Kramers Kronig
   OMEGAMAX=  -1.0    maximum frequency
   DEG_THRESHOLD= 0.2000000E-02 threshold for treating states as degnerate
   RTIME   =   -0.100 relaxation time in fs
  (WPLASMAI=    0.000 imaginary part of plasma frequency in eV, 0.658/RTIME)
   DFIELD  = 0.0000000 0.0000000 0.0000000 field for delta impulse in time
 
  Optional k-point grid parameters
   LKPOINTS_OPT  =     F    use optional k-point grid
   KPOINTS_OPT_MODE=     1    mode for optional k-point grid
 
 Orbital magnetization related:
   ORBITALMAG=     F  switch on orbital magnetization
   LCHIMAG   =     F  perturbation theory with respect to B field
   DQ        =  0.001000  dq finite difference perturbation B field
   LLRAUG    =     F  two centre corrections for induced B field
   LBONE     =     F  B-component reconstruction in AE one-centre
   LVGVCALC  =     T  calculate vGv susceptibility
   LVGVAPPL  =     F  apply vGv susceptibility instead of pGv for G=0

 Random number generation:
   RANDOM_GENERATOR = DEFAULT
   PCG_SEED         = not used


--------------------------------------------------------------------------------------------------------


 Static calculation
 charge density and potential remain constant during run
 spin polarized calculation
 Variant of blocked Davidson
 Davidson routine will perform the subspace rotation
 perform sub-space diagonalisation
    after iterative eigenvector-optimisation
 no mixing
 using additional bands           12
 real space projection scheme for non local part
 use partial core corrections
 calculate Harris-corrections to forces 
   (improved forces if not selfconsistent)
 use gradient corrections 
 WARNING: stress and forces are not correct
  (second derivative of E(xc) not defined)
 use of overlap-Matrix (Vanderbilt PP)
 Gauss-broadening in eV      SIGMA  =   0.05


--------------------------------------------------------------------------------------------------------


  energy-cutoff  :      500.00
  volume of cell :     1549.36
      direct lattice vectors                 reciprocal lattice vectors
     9.455272123  0.001866670  0.042435866     0.105796473  0.061079869 -0.010567932
    -4.730798848  8.191424966 -0.016149822     0.000001023  0.122068437 -0.005597451
     1.468980804  0.917501150 20.009007376    -0.000224376 -0.000031016  0.049995387

  length of vectors
     9.455367534  9.459395411 20.083826556     0.122618617  0.122196705  0.049995900


 
 k-points in units of 2pi/SCALE and weight: K-Path Generated by VASPKIT.            
   0.00000000  0.00000000  0.00000000       0.007
   0.00278412  0.00160736 -0.00027810       0.007
   0.00556824  0.00321473 -0.00055621       0.007
   0.00835235  0.00482209 -0.00083431       0.007
   0.01113647  0.00642946 -0.00111241       0.007
   0.01392059  0.00803682 -0.00139052       0.007
   0.01670471  0.00964419 -0.00166862       0.007
   0.01948882  0.01125155 -0.00194672       0.007
   0.02227294  0.01285892 -0.00222483       0.007
   0.02505706  0.01446628 -0.00250293       0.007
   0.02784118  0.01607365 -0.00278103       0.007
   0.03062529  0.01768101 -0.00305914       0.007
   0.03340941  0.01928838 -0.00333724       0.007
   0.03619353  0.02089574 -0.00361535       0.007
   0.03897765  0.02250311 -0.00389345       0.007
   0.04176177  0.02411047 -0.00417155       0.007
   0.04454588  0.02571784 -0.00444966       0.007
   0.04733000  0.02732520 -0.00472776       0.007
   0.05011412  0.02893257 -0.00500586       0.007
   0.05289824  0.03053993 -0.00528397       0.007
   0.00000051  0.06103422 -0.00279873       0.007
   0.00000048  0.05782189 -0.00265142       0.007
   0.00000046  0.05460956 -0.00250412       0.007
   0.00000043  0.05139724 -0.00235682       0.007
   0.00000040  0.04818491 -0.00220952       0.007
   0.00000038  0.04497258 -0.00206222       0.007
   0.00000035  0.04176025 -0.00191492       0.007
   0.00000032  0.03854793 -0.00176762       0.007
   0.00000030  0.03533560 -0.00162031       0.007
   0.00000027  0.03212327 -0.00147301       0.007
   0.00000024  0.02891095 -0.00132571       0.007
   0.00000022  0.02569862 -0.00117841       0.007
   0.00000019  0.02248629 -0.00103111       0.007
   0.00000016  0.01927396 -0.00088381       0.007
   0.00000013  0.01606164 -0.00073651       0.007
   0.00000011  0.01284931 -0.00058921       0.007
   0.00000008  0.00963698 -0.00044190       0.007
   0.00000005  0.00642465 -0.00029460       0.007
   0.00000003  0.00321233 -0.00014730       0.007
   0.00000000  0.00000000  0.00000000       0.007
   0.00000000  0.00000000  0.00000000       0.007
  -0.00000590 -0.00000082  0.00131567       0.007
  -0.00001181 -0.00000163  0.00263134       0.007
  -0.00001771 -0.00000245  0.00394700       0.007
  -0.00002362 -0.00000326  0.00526267       0.007
  -0.00002952 -0.00000408  0.00657834       0.007
  -0.00003543 -0.00000490  0.00789401       0.007
  -0.00004133 -0.00000571  0.00920968       0.007
  -0.00004724 -0.00000653  0.01052534       0.007
  -0.00005314 -0.00000735  0.01184101       0.007
  -0.00005905 -0.00000816  0.01315668       0.007
  -0.00006495 -0.00000898  0.01447235       0.007
  -0.00007086 -0.00000979  0.01578802       0.007
  -0.00007676 -0.00001061  0.01710368       0.007
  -0.00008266 -0.00001143  0.01841935       0.007
  -0.00008857 -0.00001224  0.01973502       0.007
  -0.00009447 -0.00001306  0.02105069       0.007
  -0.00010038 -0.00001388  0.02236636       0.007
  -0.00010628 -0.00001469  0.02368203       0.007
  -0.00011219 -0.00001551  0.02499769       0.007
   0.05278656  0.09155865  0.01691500       0.007
   0.05000832  0.08673977  0.01602474       0.007
   0.04723008  0.08192089  0.01513448       0.007
   0.04445184  0.07710202  0.01424421       0.007
   0.04167360  0.07228314  0.01335395       0.007
   0.03889536  0.06746426  0.01246369       0.007
   0.03611712  0.06264539  0.01157342       0.007
   0.03333888  0.05782651  0.01068316       0.007
   0.03056064  0.05300764  0.00979290       0.007
   0.02778240  0.04818876  0.00890263       0.007
   0.02500416  0.04336988  0.00801237       0.007
   0.02222592  0.03855101  0.00712211       0.007
   0.01944768  0.03373213  0.00623184       0.007
   0.01666944  0.02891326  0.00534158       0.007
   0.01389120  0.02409438  0.00445132       0.007
   0.01111296  0.01927550  0.00356105       0.007
   0.00833472  0.01445663  0.00267079       0.007
   0.00555648  0.00963775  0.00178053       0.007
   0.00277824  0.00481888  0.00089026       0.007
  -0.00000000 -0.00000000  0.00000000       0.007
   0.00000000  0.00000000  0.00000000       0.007
  -0.00000588  0.00321151  0.00116837       0.007
  -0.00001176  0.00642302  0.00233673       0.007
  -0.00001763  0.00963453  0.00350510       0.007
  -0.00002351  0.01284604  0.00467347       0.007
  -0.00002939  0.01605756  0.00584183       0.007
  -0.00003527  0.01926907  0.00701020       0.007
  -0.00004114  0.02248058  0.00817857       0.007
  -0.00004702  0.02569209  0.00934693       0.007
  -0.00005290  0.02890360  0.01051530       0.007
  -0.00005878  0.03211511  0.01168367       0.007
  -0.00006465  0.03532662  0.01285203       0.007
  -0.00007053  0.03853813  0.01402040       0.007
  -0.00007641  0.04174964  0.01518877       0.007
  -0.00008229  0.04496116  0.01635713       0.007
  -0.00008817  0.04817267  0.01752550       0.007
  -0.00009404  0.05138418  0.01869387       0.007
  -0.00009992  0.05459569  0.01986223       0.007
  -0.00010580  0.05780720  0.02103060       0.007
  -0.00011168  0.06101871  0.02219897       0.007
   0.05278605  0.03052443  0.01971373       0.007
   0.05000784  0.02891788  0.01867616       0.007
   0.04722962  0.02731133  0.01763860       0.007
   0.04445141  0.02570478  0.01660103       0.007
   0.04167320  0.02409823  0.01556347       0.007
   0.03889498  0.02249168  0.01452590       0.007
   0.03611677  0.02088513  0.01348834       0.007
   0.03333856  0.01927859  0.01245078       0.007
   0.03056034  0.01767204  0.01141321       0.007
   0.02778213  0.01606549  0.01037565       0.007
   0.02500392  0.01445894  0.00933808       0.007
   0.02222570  0.01285239  0.00830052       0.007
   0.01944749  0.01124584  0.00726295       0.007
   0.01666928  0.00963929  0.00622539       0.007
   0.01389107  0.00803274  0.00518782       0.007
   0.01111285  0.00642620  0.00415026       0.007
   0.00833464  0.00481965  0.00311269       0.007
   0.00555643  0.00321310  0.00207513       0.007
   0.00277821  0.00160655  0.00103756       0.007
  -0.00000000 -0.00000000  0.00000000       0.007
   0.00000000  0.00000000  0.00000000       0.007
   0.00278414  0.00481969 -0.00042540       0.007
   0.00556829  0.00963938 -0.00085081       0.007
   0.00835243  0.01445908 -0.00127621       0.007
   0.01113658  0.01927877 -0.00170162       0.007
   0.01392072  0.02409846 -0.00212702       0.007
   0.01670487  0.02891815 -0.00255243       0.007
   0.01948901  0.03373785 -0.00297783       0.007
   0.02227316  0.03855754 -0.00340324       0.007
   0.02505730  0.04337723 -0.00382864       0.007
   0.02784145  0.04819692 -0.00425405       0.007
   0.03062559  0.05301661 -0.00467945       0.007
   0.03340974  0.05783631 -0.00510486       0.007
   0.03619388  0.06265600 -0.00553026       0.007
   0.03897802  0.06747569 -0.00595567       0.007
   0.04176217  0.07229538 -0.00638107       0.007
   0.04454631  0.07711508 -0.00680648       0.007
   0.04733046  0.08193477 -0.00723188       0.007
   0.05011460  0.08675446 -0.00765729       0.007
   0.05289875  0.09157415 -0.00808269       0.007
 
 k-points in reciprocal lattice and weights: K-Path Generated by VASPKIT.            
   0.00000000  0.00000000  0.00000000       0.007
   0.02631579  0.00000000  0.00000000       0.007
   0.05263158  0.00000000  0.00000000       0.007
   0.07894737  0.00000000  0.00000000       0.007
   0.10526316  0.00000000  0.00000000       0.007
   0.13157895  0.00000000  0.00000000       0.007
   0.15789474  0.00000000  0.00000000       0.007
   0.18421053  0.00000000  0.00000000       0.007
   0.21052632  0.00000000  0.00000000       0.007
   0.23684211  0.00000000  0.00000000       0.007
   0.26315789  0.00000000  0.00000000       0.007
   0.28947368  0.00000000  0.00000000       0.007
   0.31578947  0.00000000  0.00000000       0.007
   0.34210526  0.00000000  0.00000000       0.007
   0.36842105  0.00000000  0.00000000       0.007
   0.39473684  0.00000000  0.00000000       0.007
   0.42105263  0.00000000  0.00000000       0.007
   0.44736842  0.00000000  0.00000000       0.007
   0.47368421  0.00000000  0.00000000       0.007
   0.50000000  0.00000000  0.00000000       0.007
   0.00000000  0.50000000  0.00000000       0.007
   0.00000000  0.47368421  0.00000000       0.007
   0.00000000  0.44736842  0.00000000       0.007
   0.00000000  0.42105263  0.00000000       0.007
   0.00000000  0.39473684  0.00000000       0.007
   0.00000000  0.36842105  0.00000000       0.007
   0.00000000  0.34210526  0.00000000       0.007
   0.00000000  0.31578947  0.00000000       0.007
   0.00000000  0.28947368  0.00000000       0.007
   0.00000000  0.26315789  0.00000000       0.007
   0.00000000  0.23684211  0.00000000       0.007
   0.00000000  0.21052632  0.00000000       0.007
   0.00000000  0.18421053  0.00000000       0.007
   0.00000000  0.15789474  0.00000000       0.007
   0.00000000  0.13157895  0.00000000       0.007
   0.00000000  0.10526316  0.00000000       0.007
   0.00000000  0.07894737  0.00000000       0.007
   0.00000000  0.05263158  0.00000000       0.007
   0.00000000  0.02631579  0.00000000       0.007
   0.00000000  0.00000000  0.00000000       0.007
   0.00000000  0.00000000  0.00000000       0.007
   0.00000000  0.00000000  0.02631579       0.007
   0.00000000  0.00000000  0.05263158       0.007
   0.00000000  0.00000000  0.07894737       0.007
   0.00000000  0.00000000  0.10526316       0.007
   0.00000000  0.00000000  0.13157895       0.007
   0.00000000  0.00000000  0.15789474       0.007
   0.00000000  0.00000000  0.18421053       0.007
   0.00000000  0.00000000  0.21052632       0.007
   0.00000000  0.00000000  0.23684211       0.007
   0.00000000  0.00000000  0.26315789       0.007
   0.00000000  0.00000000  0.28947368       0.007
   0.00000000  0.00000000  0.31578947       0.007
   0.00000000  0.00000000  0.34210526       0.007
   0.00000000  0.00000000  0.36842105       0.007
   0.00000000  0.00000000  0.39473684       0.007
   0.00000000  0.00000000  0.42105263       0.007
   0.00000000  0.00000000  0.44736842       0.007
   0.00000000  0.00000000  0.47368421       0.007
   0.00000000  0.00000000  0.50000000       0.007
   0.50000000  0.50000000  0.50000000       0.007
   0.47368421  0.47368421  0.47368421       0.007
   0.44736842  0.44736842  0.44736842       0.007
   0.42105263  0.42105263  0.42105263       0.007
   0.39473684  0.39473684  0.39473684       0.007
   0.36842105  0.36842105  0.36842105       0.007
   0.34210526  0.34210526  0.34210526       0.007
   0.31578947  0.31578947  0.31578947       0.007
   0.28947368  0.28947368  0.28947368       0.007
   0.26315789  0.26315789  0.26315789       0.007
   0.23684211  0.23684211  0.23684211       0.007
   0.21052632  0.21052632  0.21052632       0.007
   0.18421053  0.18421053  0.18421053       0.007
   0.15789474  0.15789474  0.15789474       0.007
   0.13157895  0.13157895  0.13157895       0.007
   0.10526316  0.10526316  0.10526316       0.007
   0.07894737  0.07894737  0.07894737       0.007
   0.05263158  0.05263158  0.05263158       0.007
   0.02631579  0.02631579  0.02631579       0.007
   0.00000000  0.00000000  0.00000000       0.007
   0.00000000  0.00000000  0.00000000       0.007
   0.00000000  0.02631579  0.02631579       0.007
   0.00000000  0.05263158  0.05263158       0.007
   0.00000000  0.07894737  0.07894737       0.007
   0.00000000  0.10526316  0.10526316       0.007
   0.00000000  0.13157895  0.13157895       0.007
   0.00000000  0.15789474  0.15789474       0.007
   0.00000000  0.18421053  0.18421053       0.007
   0.00000000  0.21052632  0.21052632       0.007
   0.00000000  0.23684211  0.23684211       0.007
   0.00000000  0.26315789  0.26315789       0.007
   0.00000000  0.28947368  0.28947368       0.007
   0.00000000  0.31578947  0.31578947       0.007
   0.00000000  0.34210526  0.34210526       0.007
   0.00000000  0.36842105  0.36842105       0.007
   0.00000000  0.39473684  0.39473684       0.007
   0.00000000  0.42105263  0.42105263       0.007
   0.00000000  0.44736842  0.44736842       0.007
   0.00000000  0.47368421  0.47368421       0.007
   0.00000000  0.50000000  0.50000000       0.007
   0.50000000  0.00000000  0.50000000       0.007
   0.47368421  0.00000000  0.47368421       0.007
   0.44736842  0.00000000  0.44736842       0.007
   0.42105263  0.00000000  0.42105263       0.007
   0.39473684  0.00000000  0.39473684       0.007
   0.36842105  0.00000000  0.36842105       0.007
   0.34210526  0.00000000  0.34210526       0.007
   0.31578947  0.00000000  0.31578947       0.007
   0.28947368  0.00000000  0.28947368       0.007
   0.26315789  0.00000000  0.26315789       0.007
   0.23684211  0.00000000  0.23684211       0.007
   0.21052632  0.00000000  0.21052632       0.007
   0.18421053  0.00000000  0.18421053       0.007
   0.15789474  0.00000000  0.15789474       0.007
   0.13157895  0.00000000  0.13157895       0.007
   0.10526316  0.00000000  0.10526316       0.007
   0.07894737  0.00000000  0.07894737       0.007
   0.05263158  0.00000000  0.05263158       0.007
   0.02631579  0.00000000  0.02631579       0.007
   0.00000000  0.00000000  0.00000000       0.007
   0.00000000  0.00000000  0.00000000       0.007
   0.02631579  0.02631579  0.00000000       0.007
   0.05263158  0.05263158  0.00000000       0.007
   0.07894737  0.07894737  0.00000000       0.007
   0.10526316  0.10526316  0.00000000       0.007
   0.13157895  0.13157895  0.00000000       0.007
   0.15789474  0.15789474  0.00000000       0.007
   0.18421053  0.18421053  0.00000000       0.007
   0.21052632  0.21052632  0.00000000       0.007
   0.23684211  0.23684211  0.00000000       0.007
   0.26315789  0.26315789  0.00000000       0.007
   0.28947368  0.28947368  0.00000000       0.007
   0.31578947  0.31578947  0.00000000       0.007
   0.34210526  0.34210526  0.00000000       0.007
   0.36842105  0.36842105  0.00000000       0.007
   0.39473684  0.39473684  0.00000000       0.007
   0.42105263  0.42105263  0.00000000       0.007
   0.44736842  0.44736842  0.00000000       0.007
   0.47368421  0.47368421  0.00000000       0.007
   0.50000000  0.50000000  0.00000000       0.007
 
 position of ions in fractional coordinates (direct lattice) 
   0.12853474  0.98757509  0.32066923
   0.97718899  0.13903194  0.32097747
   0.82583017  0.83635896  0.32015650
   0.82601072  0.98783782  0.32008651
   0.97702444  0.83618109  0.32083139
   0.12860371  0.13893627  0.32085183
   0.27628699  0.98758415  0.31999036
   0.97742696  0.28676920  0.32147501
   0.67807551  0.68912017  0.31960464
   0.67858561  0.98782205  0.31919420
   0.97726017  0.68865294  0.32118324
   0.27631393  0.28662475  0.32050523
   0.40668103  0.98753644  0.31923792
   0.97787583  0.41723049  0.32166657
   0.54764449  0.55911721  0.31950884
   0.54818382  0.98744638  0.31890020
   0.97781910  0.55868977  0.32155299
   0.40628520  0.41738139  0.31985844
   0.58665780  0.28970070  0.48144936
   0.59578295  0.29630901  0.53574585
   0.66200772  0.44211105  0.45185329
   0.42679695  0.21055705  0.46806631
   0.65901411  0.20765553  0.45412129
 
 position of ions in cartesian coordinates  (Angst):
  -2.98563123  8.38410160  6.40577822
   9.05336546  1.43519097  6.46166303
   4.32210677  7.14625716  6.42755154
   3.60709505  8.38702103  6.42371233
   5.75352255  7.14570163  6.44747436
   1.03002875  1.43270799  6.42314023
  -1.58963362  8.38382871  6.39846472
   8.35743109  2.64582663  6.46924252
   3.62079267  5.93937954  6.41261710
   2.21191437  8.38579793  6.39960228
   6.45419435  5.93755913  6.45690705
   1.72747543  2.64244480  6.42008821
  -0.35760207  8.38299092  6.38894313
   7.74477056  3.71466704  6.47098756
   3.00240893  4.87413868  6.40726484
   0.98027528  8.38220755  6.38819207
   7.07485190  4.87331581  6.46642792
   2.33685563  3.71317724  6.41055033
   4.88373330  2.81588698  9.65354042
   5.01851192  2.91985261 10.74023991
   4.83168852  4.03733113  9.06208866
   3.72695867  2.15501032  9.38025338
   5.91587670  2.11888166  9.11112843
 


--------------------------------------------------------------------------------------------------------


 k-point     1 :   0.0000 0.0000 0.0000  plane waves:   39345
 k-point     2 :   0.0263 0.0000 0.0000  plane waves:   39362
 k-point     3 :   0.0526 0.0000 0.0000  plane waves:   39359
 k-point     4 :   0.0789 0.0000 0.0000  plane waves:   39361
 k-point     5 :   0.1053 0.0000 0.0000  plane waves:   39362
 k-point     6 :   0.1316 0.0000 0.0000  plane waves:   39347
 k-point     7 :   0.1579 0.0000 0.0000  plane waves:   39368
 k-point     8 :   0.1842 0.0000 0.0000  plane waves:   39352
 k-point     9 :   0.2105 0.0000 0.0000  plane waves:   39333
 k-point    10 :   0.2368 0.0000 0.0000  plane waves:   39323
 k-point    11 :   0.2632 0.0000 0.0000  plane waves:   39332
 k-point    12 :   0.2895 0.0000 0.0000  plane waves:   39339
 k-point    13 :   0.3158 0.0000 0.0000  plane waves:   39328
 k-point    14 :   0.3421 0.0000 0.0000  plane waves:   39340
 k-point    15 :   0.3684 0.0000 0.0000  plane waves:   39364
 k-point    16 :   0.3947 0.0000 0.0000  plane waves:   39363
 k-point    17 :   0.4211 0.0000 0.0000  plane waves:   39359
 k-point    18 :   0.4474 0.0000 0.0000  plane waves:   39367
 k-point    19 :   0.4737 0.0000 0.0000  plane waves:   39381
 k-point    20 :   0.5000 0.0000 0.0000  plane waves:   39400
 k-point    21 :   0.0000 0.5000 0.0000  plane waves:   39372
 k-point    22 :   0.0000 0.4737 0.0000  plane waves:   39370
 k-point    23 :   0.0000 0.4474 0.0000  plane waves:   39355
 k-point    24 :   0.0000 0.4211 0.0000  plane waves:   39359
 k-point    25 :   0.0000 0.3947 0.0000  plane waves:   39355
 k-point    26 :   0.0000 0.3684 0.0000  plane waves:   39357
 k-point    27 :   0.0000 0.3421 0.0000  plane waves:   39357
 k-point    28 :   0.0000 0.3158 0.0000  plane waves:   39358
 k-point    29 :   0.0000 0.2895 0.0000  plane waves:   39347
 k-point    30 :   0.0000 0.2632 0.0000  plane waves:   39333
 k-point    31 :   0.0000 0.2368 0.0000  plane waves:   39319
 k-point    32 :   0.0000 0.2105 0.0000  plane waves:   39318
 k-point    33 :   0.0000 0.1842 0.0000  plane waves:   39311
 k-point    34 :   0.0000 0.1579 0.0000  plane waves:   39313
 k-point    35 :   0.0000 0.1316 0.0000  plane waves:   39332
 k-point    36 :   0.0000 0.1053 0.0000  plane waves:   39347
 k-point    37 :   0.0000 0.0789 0.0000  plane waves:   39342
 k-point    38 :   0.0000 0.0526 0.0000  plane waves:   39347
 k-point    39 :   0.0000 0.0263 0.0000  plane waves:   39349
 k-point    40 :   0.0000 0.0000 0.0000  plane waves:   39345
 k-point    41 :   0.0000 0.0000 0.0000  plane waves:   39345
 k-point    42 :   0.0000 0.0000 0.0263  plane waves:   39343
 k-point    43 :   0.0000 0.0000 0.0526  plane waves:   39353
 k-point    44 :   0.0000 0.0000 0.0789  plane waves:   39345
 k-point    45 :   0.0000 0.0000 0.1053  plane waves:   39337
 k-point    46 :   0.0000 0.0000 0.1316  plane waves:   39338
 k-point    47 :   0.0000 0.0000 0.1579  plane waves:   39335
 k-point    48 :   0.0000 0.0000 0.1842  plane waves:   39325
 k-point    49 :   0.0000 0.0000 0.2105  plane waves:   39313
 k-point    50 :   0.0000 0.0000 0.2368  plane waves:   39312
 k-point    51 :   0.0000 0.0000 0.2632  plane waves:   39306
 k-point    52 :   0.0000 0.0000 0.2895  plane waves:   39310
 k-point    53 :   0.0000 0.0000 0.3158  plane waves:   39308
 k-point    54 :   0.0000 0.0000 0.3421  plane waves:   39295
 k-point    55 :   0.0000 0.0000 0.3684  plane waves:   39300
 k-point    56 :   0.0000 0.0000 0.3947  plane waves:   39307
 k-point    57 :   0.0000 0.0000 0.4211  plane waves:   39309
 k-point    58 :   0.0000 0.0000 0.4474  plane waves:   39304
 k-point    59 :   0.0000 0.0000 0.4737  plane waves:   39303
 k-point    60 :   0.0000 0.0000 0.5000  plane waves:   39302
 k-point    61 :   0.5000 0.5000 0.5000  plane waves:   39362
 k-point    62 :   0.4737 0.4737 0.4737  plane waves:   39359
 k-point    63 :   0.4474 0.4474 0.4474  plane waves:   39357
 k-point    64 :   0.4211 0.4211 0.4211  plane waves:   39322
 k-point    65 :   0.3947 0.3947 0.3947  plane waves:   39309
 k-point    66 :   0.3684 0.3684 0.3684  plane waves:   39315
 k-point    67 :   0.3421 0.3421 0.3421  plane waves:   39307
 k-point    68 :   0.3158 0.3158 0.3158  plane waves:   39305
 k-point    69 :   0.2895 0.2895 0.2895  plane waves:   39333
 k-point    70 :   0.2632 0.2632 0.2632  plane waves:   39313
 k-point    71 :   0.2368 0.2368 0.2368  plane waves:   39319
 k-point    72 :   0.2105 0.2105 0.2105  plane waves:   39340
 k-point    73 :   0.1842 0.1842 0.1842  plane waves:   39336
 k-point    74 :   0.1579 0.1579 0.1579  plane waves:   39326
 k-point    75 :   0.1316 0.1316 0.1316  plane waves:   39332
 k-point    76 :   0.1053 0.1053 0.1053  plane waves:   39343
 k-point    77 :   0.0789 0.0789 0.0789  plane waves:   39352
 k-point    78 :   0.0526 0.0526 0.0526  plane waves:   39348
 k-point    79 :   0.0263 0.0263 0.0263  plane waves:   39361
 k-point    80 :   0.0000 0.0000 0.0000  plane waves:   39345
 k-point    81 :   0.0000 0.0000 0.0000  plane waves:   39345
 k-point    82 :   0.0000 0.0263 0.0263  plane waves:   39343
 k-point    83 :   0.0000 0.0526 0.0526  plane waves:   39343
 k-point    84 :   0.0000 0.0789 0.0789  plane waves:   39331
 k-point    85 :   0.0000 0.1053 0.1053  plane waves:   39327
 k-point    86 :   0.0000 0.1316 0.1316  plane waves:   39325
 k-point    87 :   0.0000 0.1579 0.1579  plane waves:   39328
 k-point    88 :   0.0000 0.1842 0.1842  plane waves:   39320
 k-point    89 :   0.0000 0.2105 0.2105  plane waves:   39320
 k-point    90 :   0.0000 0.2368 0.2368  plane waves:   39315
 k-point    91 :   0.0000 0.2632 0.2632  plane waves:   39329
 k-point    92 :   0.0000 0.2895 0.2895  plane waves:   39351
 k-point    93 :   0.0000 0.3158 0.3158  plane waves:   39347
 k-point    94 :   0.0000 0.3421 0.3421  plane waves:   39332
 k-point    95 :   0.0000 0.3684 0.3684  plane waves:   39350
 k-point    96 :   0.0000 0.3947 0.3947  plane waves:   39356
 k-point    97 :   0.0000 0.4211 0.4211  plane waves:   39352
 k-point    98 :   0.0000 0.4474 0.4474  plane waves:   39357
 k-point    99 :   0.0000 0.4737 0.4737  plane waves:   39352
 k-point   100 :   0.0000 0.5000 0.5000  plane waves:   39366
 k-point   101 :   0.5000 0.0000 0.5000  plane waves:   39346
 k-point   102 :   0.4737 0.0000 0.4737  plane waves:   39332
 k-point   103 :   0.4474 0.0000 0.4474  plane waves:   39323
 k-point   104 :   0.4211 0.0000 0.4211  plane waves:   39355
 k-point   105 :   0.3947 0.0000 0.3947  plane waves:   39365
 k-point   106 :   0.3684 0.0000 0.3684  plane waves:   39356
 k-point   107 :   0.3421 0.0000 0.3421  plane waves:   39347
 k-point   108 :   0.3158 0.0000 0.3158  plane waves:   39342
 k-point   109 :   0.2895 0.0000 0.2895  plane waves:   39359
 k-point   110 :   0.2632 0.0000 0.2632  plane waves:   39334
 k-point   111 :   0.2368 0.0000 0.2368  plane waves:   39327
 k-point   112 :   0.2105 0.0000 0.2105  plane waves:   39331
 k-point   113 :   0.1842 0.0000 0.1842  plane waves:   39326
 k-point   114 :   0.1579 0.0000 0.1579  plane waves:   39309
 k-point   115 :   0.1316 0.0000 0.1316  plane waves:   39320
 k-point   116 :   0.1053 0.0000 0.1053  plane waves:   39344
 k-point   117 :   0.0789 0.0000 0.0789  plane waves:   39334
 k-point   118 :   0.0526 0.0000 0.0526  plane waves:   39344
 k-point   119 :   0.0263 0.0000 0.0263  plane waves:   39362
 k-point   120 :   0.0000 0.0000 0.0000  plane waves:   39345
 k-point   121 :   0.0000 0.0000 0.0000  plane waves:   39345
 k-point   122 :   0.0263 0.0263 0.0000  plane waves:   39360
 k-point   123 :   0.0526 0.0526 0.0000  plane waves:   39351
 k-point   124 :   0.0789 0.0789 0.0000  plane waves:   39348
 k-point   125 :   0.1053 0.1053 0.0000  plane waves:   39339
 k-point   126 :   0.1316 0.1316 0.0000  plane waves:   39331
 k-point   127 :   0.1579 0.1579 0.0000  plane waves:   39329
 k-point   128 :   0.1842 0.1842 0.0000  plane waves:   39324
 k-point   129 :   0.2105 0.2105 0.0000  plane waves:   39335
 k-point   130 :   0.2368 0.2368 0.0000  plane waves:   39340
 k-point   131 :   0.2632 0.2632 0.0000  plane waves:   39340
 k-point   132 :   0.2895 0.2895 0.0000  plane waves:   39333
 k-point   133 :   0.3158 0.3158 0.0000  plane waves:   39333
 k-point   134 :   0.3421 0.3421 0.0000  plane waves:   39333
 k-point   135 :   0.3684 0.3684 0.0000  plane waves:   39306
 k-point   136 :   0.3947 0.3947 0.0000  plane waves:   39329
 k-point   137 :   0.4211 0.4211 0.0000  plane waves:   39333
 k-point   138 :   0.4474 0.4474 0.0000  plane waves:   39334
 k-point   139 :   0.4737 0.4737 0.0000  plane waves:   39357
 k-point   140 :   0.5000 0.5000 0.0000  plane waves:   39380

 maximum and minimum number of plane-waves per node :     13169    13070

 maximum number of plane-waves:     39400
 maximum index in each direction: 
   IXMAX=   17   IYMAX=   17   IZMAX=   36
   IXMIN=  -17   IYMIN=  -17   IZMIN=  -37


 real space projection operators:
  total allocation   :       3140.45 KBytes
  max/ min on nodes  :       1095.83       1021.70


 parallel 3D FFT for wavefunctions:
    minimum data exchange during FFTs selected (reduces bandwidth)
 parallel 3D FFT for charge:
    minimum data exchange during FFTs selected (reduces bandwidth)


 total amount of memory used by VASP MPI-rank0  4132651. kBytes
=======================================================================

   base                                    :      30000. kBytes
   nonlr-proj                              :       2690. kBytes
   fftplans                                :     295284. kBytes
   grid                                    :     194873. kBytes
   one-center                              :         49. kBytes
   wavefun                                 :    3609755. kBytes
 
     INWAV:  cpu time      0.0000: real time      0.0000
 initial charge density was supplied:
 number of electron      98.0000000 magnetization      -0.0000000
 keeping initial charge density in first step


--------------------------------------------------------------------------------------------------------


 Maximum index for non-local projection operator         1114
 Maximum index for augmentation-charges        15620 (set IRDMAX)


--------------------------------------------------------------------------------------------------------


 First call to EWALD:  gamma=   0.153
 Maximum number of real-space cells   4x   4x   2
 Maximum number of reciprocal cells   2x   2x   4

    FEWALD:  cpu time      0.0974: real time      0.0974


--------------------------------------- Ionic step        1  -------------------------------------------




--------------------------------------- Iteration      1(   1)  ---------------------------------------


    POTLOK:  cpu time      3.7362: real time      3.7364
    SETDIJ:  cpu time      1.3307: real time      1.3307
     EDDAV:  cpu time    287.0804: real time    287.1680
       DOS:  cpu time      0.0269: real time      0.0269
    --------------------------------------------
      LOOP:  cpu time    292.1746: real time    292.2624

 eigenvalue-minimisations  : 38088
 total energy-change (2. order) : 0.8429586E+03  (-0.3187359E+04)
 number of electron      98.0000000 magnetization      -0.0000000
 augmentation part       98.0000000 magnetization      -0.0000000

 Free energy of the ion-electron system (eV)
  ---------------------------------------------------
  alpha Z        PSCENC =        29.59575746
  Ewald energy   TEWEN  =     10274.60912286
  -Hartree energ DENC   =    -14327.43890759
  -exchange      EXHF   =         0.00000000
  -V(xc)+E(xc)   XCENC  =       370.92545895
  PAW double counting   =      9834.22152067    -9862.91069999
  entropy T*S    EENTRO =        -0.01217138
  eigenvalues    EBANDS =      -263.17411137
  atomic energy  EATOM  =      4787.14266000
  Solvation  Ediel_sol  =         0.00000000
  ---------------------------------------------------
  free energy    TOTEN  =       842.95862961 eV

  energy without entropy =      842.97080099  energy(sigma->0) =      842.96471530


--------------------------------------------------------------------------------------------------------




--------------------------------------- Iteration      1(   2)  ---------------------------------------


     EDDAV:  cpu time    365.9701: real time    366.1035
       DOS:  cpu time      0.0106: real time      0.0106
    --------------------------------------------
      LOOP:  cpu time    365.9807: real time    366.1140

 eigenvalue-minimisations  : 53888
 total energy-change (2. order) :-0.7859500E+03  (-0.7446336E+03)
 number of electron      98.0000000 magnetization      -0.0000000
 augmentation part       98.0000000 magnetization      -0.0000000

 Free energy of the ion-electron system (eV)
  ---------------------------------------------------
  alpha Z        PSCENC =        29.59575746
  Ewald energy   TEWEN  =     10274.60912286
  -Hartree energ DENC   =    -14327.43890759
  -exchange      EXHF   =         0.00000000
  -V(xc)+E(xc)   XCENC  =       370.92545895
  PAW double counting   =      9834.22152067    -9862.91069999
  entropy T*S    EENTRO =        -0.00180099
  eigenvalues    EBANDS =     -1049.13451854
  atomic energy  EATOM  =      4787.14266000
  Solvation  Ediel_sol  =         0.00000000
  ---------------------------------------------------
  free energy    TOTEN  =        57.00859283 eV

  energy without entropy =       57.01039382  energy(sigma->0) =       57.00949332


--------------------------------------------------------------------------------------------------------




--------------------------------------- Iteration      1(   3)  ---------------------------------------


     EDDAV:  cpu time    275.2441: real time    275.3058
       DOS:  cpu time      0.0112: real time      0.0111
    --------------------------------------------
      LOOP:  cpu time    275.2552: real time    275.3170

 eigenvalue-minimisations  : 39008
 total energy-change (2. order) :-0.2230831E+03  (-0.2217382E+03)
 number of electron      98.0000000 magnetization      -0.0000000
 augmentation part       98.0000000 magnetization      -0.0000000

 Free energy of the ion-electron system (eV)
  ---------------------------------------------------
  alpha Z        PSCENC =        29.59575746
  Ewald energy   TEWEN  =     10274.60912286
  -Hartree energ DENC   =    -14327.43890759
  -exchange      EXHF   =         0.00000000
  -V(xc)+E(xc)   XCENC  =       370.92545895
  PAW double counting   =      9834.22152067    -9862.91069999
  entropy T*S    EENTRO =        -0.00112366
  eigenvalues    EBANDS =     -1272.21828245
  atomic energy  EATOM  =      4787.14266000
  Solvation  Ediel_sol  =         0.00000000
  ---------------------------------------------------
  free energy    TOTEN  =      -166.07449376 eV

  energy without entropy =     -166.07337009  energy(sigma->0) =     -166.07393193


--------------------------------------------------------------------------------------------------------




--------------------------------------- Iteration      1(   4)  ---------------------------------------


     EDDAV:  cpu time    270.9336: real time    271.0028
       DOS:  cpu time      0.0273: real time      0.0273
    --------------------------------------------
      LOOP:  cpu time    270.9608: real time    271.0300

 eigenvalue-minimisations  : 40728
 total energy-change (2. order) :-0.1013419E+02  (-0.1000555E+02)
 number of electron      98.0000000 magnetization      -0.0000000
 augmentation part       98.0000000 magnetization      -0.0000000

 Free energy of the ion-electron system (eV)
  ---------------------------------------------------
  alpha Z        PSCENC =        29.59575746
  Ewald energy   TEWEN  =     10274.60912286
  -Hartree energ DENC   =    -14327.43890759
  -exchange      EXHF   =         0.00000000
  -V(xc)+E(xc)   XCENC  =       370.92545895
  PAW double counting   =      9834.22152067    -9862.91069999
  entropy T*S    EENTRO =        -0.00000000
  eigenvalues    EBANDS =     -1282.35360015
  atomic energy  EATOM  =      4787.14266000
  Solvation  Ediel_sol  =         0.00000000
  ---------------------------------------------------
  free energy    TOTEN  =      -176.20868780 eV

  energy without entropy =     -176.20868780  energy(sigma->0) =     -176.20868780


--------------------------------------------------------------------------------------------------------




--------------------------------------- Iteration      1(   5)  ---------------------------------------


     EDDAV:  cpu time    304.6735: real time    304.8560
       DOS:  cpu time      0.0267: real time      0.0268
    --------------------------------------------
      LOOP:  cpu time    304.7003: real time    304.8828

 eigenvalue-minimisations  : 48030
 total energy-change (2. order) :-0.2682653E+00  (-0.2661614E+00)
 number of electron      98.0000000 magnetization      -0.0000000
 augmentation part       98.0000000 magnetization      -0.0000000

 Free energy of the ion-electron system (eV)
  ---------------------------------------------------
  alpha Z        PSCENC =        29.59575746
  Ewald energy   TEWEN  =     10274.60912286
  -Hartree energ DENC   =    -14327.43890759
  -exchange      EXHF   =         0.00000000
  -V(xc)+E(xc)   XCENC  =       370.92545895
  PAW double counting   =      9834.22152067    -9862.91069999
  entropy T*S    EENTRO =        -0.00000000
  eigenvalues    EBANDS =     -1282.62186549
  atomic energy  EATOM  =      4787.14266000
  Solvation  Ediel_sol  =         0.00000000
  ---------------------------------------------------
  free energy    TOTEN  =      -176.47695314 eV

  energy without entropy =     -176.47695314  energy(sigma->0) =     -176.47695314


--------------------------------------------------------------------------------------------------------




--------------------------------------- Iteration      1(   6)  ---------------------------------------


     EDDAV:  cpu time    282.4283: real time    282.4759
       DOS:  cpu time      0.0259: real time      0.0259
    --------------------------------------------
      LOOP:  cpu time    282.4542: real time    282.5019

 eigenvalue-minimisations  : 43082
 total energy-change (2. order) :-0.5460163E-02  (-0.5441432E-02)
 number of electron      98.0000000 magnetization      -0.0000000
 augmentation part       98.0000000 magnetization      -0.0000000

 Free energy of the ion-electron system (eV)
  ---------------------------------------------------
  alpha Z        PSCENC =        29.59575746
  Ewald energy   TEWEN  =     10274.60912286
  -Hartree energ DENC   =    -14327.43890759
  -exchange      EXHF   =         0.00000000
  -V(xc)+E(xc)   XCENC  =       370.92545895
  PAW double counting   =      9834.22152067    -9862.91069999
  entropy T*S    EENTRO =        -0.00000000
  eigenvalues    EBANDS =     -1282.62732566
  atomic energy  EATOM  =      4787.14266000
  Solvation  Ediel_sol  =         0.00000000
  ---------------------------------------------------
  free energy    TOTEN  =      -176.48241330 eV

  energy without entropy =     -176.48241330  energy(sigma->0) =     -176.48241330


--------------------------------------------------------------------------------------------------------




--------------------------------------- Iteration      1(   7)  ---------------------------------------


     EDDAV:  cpu time    316.1762: real time    316.3232
       DOS:  cpu time      0.0112: real time      0.0112
    --------------------------------------------
      LOOP:  cpu time    316.1875: real time    316.3345

 eigenvalue-minimisations  : 48829
 total energy-change (2. order) :-0.1962814E-03  (-0.1961120E-03)
 number of electron      98.0000000 magnetization      -0.0000000
 augmentation part       98.0000000 magnetization      -0.0000000

 Free energy of the ion-electron system (eV)
  ---------------------------------------------------
  alpha Z        PSCENC =        29.59575746
  Ewald energy   TEWEN  =     10274.60912286
  -Hartree energ DENC   =    -14327.43890759
  -exchange      EXHF   =         0.00000000
  -V(xc)+E(xc)   XCENC  =       370.92545895
  PAW double counting   =      9834.22152067    -9862.91069999
  entropy T*S    EENTRO =        -0.00000000
  eigenvalues    EBANDS =     -1282.62752194
  atomic energy  EATOM  =      4787.14266000
  Solvation  Ediel_sol  =         0.00000000
  ---------------------------------------------------
  free energy    TOTEN  =      -176.48260958 eV

  energy without entropy =     -176.48260958  energy(sigma->0) =     -176.48260958


--------------------------------------------------------------------------------------------------------




--------------------------------------- Iteration      1(   8)  ---------------------------------------


     EDDAV:  cpu time    290.0525: real time    290.2350
       DOS:  cpu time      0.0116: real time      0.0116
    --------------------------------------------
      LOOP:  cpu time    290.0641: real time    290.2466

 eigenvalue-minimisations  : 44543
 total energy-change (2. order) :-0.4911158E-05  (-0.4908431E-05)
 number of electron      98.0000000 magnetization      -0.0000000
 augmentation part       98.0000000 magnetization      -0.0000000

 Free energy of the ion-electron system (eV)
  ---------------------------------------------------
  alpha Z        PSCENC =        29.59575746
  Ewald energy   TEWEN  =     10274.60912286
  -Hartree energ DENC   =    -14327.43890759
  -exchange      EXHF   =         0.00000000
  -V(xc)+E(xc)   XCENC  =       370.92545895
  PAW double counting   =      9834.22152067    -9862.91069999
  entropy T*S    EENTRO =        -0.00000000
  eigenvalues    EBANDS =     -1282.62752685
  atomic energy  EATOM  =      4787.14266000
  Solvation  Ediel_sol  =         0.00000000
  ---------------------------------------------------
  free energy    TOTEN  =      -176.48261449 eV

  energy without entropy =     -176.48261449  energy(sigma->0) =     -176.48261449


--------------------------------------------------------------------------------------------------------




--------------------------------------- Iteration      1(   9)  ---------------------------------------


     EDDAV:  cpu time    212.0591: real time    212.1471
       DOS:  cpu time      0.0115: real time      0.0115
    --------------------------------------------
      LOOP:  cpu time    212.0707: real time    212.1587

 eigenvalue-minimisations  : 29011
 total energy-change (2. order) :-0.1060098E-06  (-0.1056542E-06)
 number of electron      98.0000000 magnetization      -0.0000000
 augmentation part       98.0000000 magnetization      -0.0000000

 Free energy of the ion-electron system (eV)
  ---------------------------------------------------
  alpha Z        PSCENC =        29.59575746
  Ewald energy   TEWEN  =     10274.60912286
  -Hartree energ DENC   =    -14327.43890759
  -exchange      EXHF   =         0.00000000
  -V(xc)+E(xc)   XCENC  =       370.92545895
  PAW double counting   =      9834.22152067    -9862.91069999
  entropy T*S    EENTRO =        -0.00000000
  eigenvalues    EBANDS =     -1282.62752696
  atomic energy  EATOM  =      4787.14266000
  Solvation  Ediel_sol  =         0.00000000
  ---------------------------------------------------
  free energy    TOTEN  =      -176.48261460 eV

  energy without entropy =     -176.48261460  energy(sigma->0) =     -176.48261460


--------------------------------------------------------------------------------------------------------




 average (electrostatic) potential at core
  the test charge radii are     0.6991  0.5201  0.7167
  (the norm of the test charge is              1.0000)
       1 -59.5199       2 -59.5213       3 -59.5208       4 -59.5192       5 -59.5224
       6 -59.5201       7 -58.7779       8 -58.7812       9 -58.7735      10 -58.7721
      11 -58.7808      12 -58.7787      13 -58.8447      14 -58.8497      15 -58.8439
      16 -58.8422      17 -58.8496      18 -58.8458      19 -63.5929      20 -42.8425
      21 -85.5987      22 -85.5990      23 -85.5977
 
 
 
 E-fermi :  -3.7827     XC(G=0):  -2.0508     alpha+bet : -1.3718

 val. band max:       -4.0144103614   @ k =   0.0000   0.0000   0.1842
 cond. band min:      -3.5412657280   @ k =   0.0000   0.0000   0.0526
 fundamental gap:      0.4731446334
 Fermi energy:        -3.7827074970

 spin component 1

 k-point     1 :       0.0000    0.0000    0.0000
  band No.  band energies     occupation 
      1     -31.9371      1.00000
      2     -29.7651      1.00000
      3     -29.7603      1.00000
      4     -22.0074      1.00000
      5     -20.2117      1.00000
      6     -20.2093      1.00000
      7     -19.3702      1.00000
      8     -19.3680      1.00000
      9     -19.1262      1.00000
     10     -17.7852      1.00000
     11     -16.9188      1.00000
     12     -16.9160      1.00000
     13     -16.9066      1.00000
     14     -16.9038      1.00000
     15     -16.7695      1.00000
     16     -15.5986      1.00000
     17     -13.7392      1.00000
     18     -13.7366      1.00000
     19     -13.7106      1.00000
     20     -13.5758      1.00000
     21     -13.4618      1.00000
     22     -13.4580      1.00000
     23     -12.9968      1.00000
     24     -12.2289      1.00000
     25     -11.7255      1.00000
     26     -11.7214      1.00000
     27     -10.1717      1.00000
     28     -10.1250      1.00000
     29     -10.1217      1.00000
     30      -9.9611      1.00000
     31      -9.9585      1.00000
     32      -9.2340      1.00000
     33      -9.2308      1.00000
     34      -8.6546      1.00000
     35      -8.4875      1.00000
     36      -8.2984      1.00000
     37      -8.2968      1.00000
     38      -8.2164      1.00000
     39      -8.2129      1.00000
     40      -7.8914      1.00000
     41      -7.8332      1.00000
     42      -7.8286      1.00000
     43      -7.4859      1.00000
     44      -5.9799      1.00000
     45      -5.8126      1.00000
     46      -5.8119      1.00000
     47      -4.8295      1.00000
     48      -4.0198      1.00000
     49      -4.0144      1.00000
     50      -3.5413      0.00000
     51      -3.5378      0.00000
     52      -1.0047      0.00000
     53      -0.9969      0.00000
     54      -0.9896      0.00000
     55      -0.6171      0.00000
     56       0.2154      0.00000
     57       0.6548      0.00000
     58       1.1360      0.00000
     59       1.6867      0.00000
     60       1.8267      0.00000
     61       1.8504      0.00000

 k-point     2 :       0.0263    0.0000    0.0000
  band No.  band energies     occupation 
      1     -31.9371      1.00000
      2     -29.7651      1.00000
      3     -29.7603      1.00000
      4     -22.0073      1.00000
      5     -20.2131      1.00000
      6     -20.2099      1.00000
      7     -19.3691      1.00000
      8     -19.3663      1.00000
      9     -19.1242      1.00000
     10     -17.7893      1.00000
     11     -16.9652      1.00000
     12     -16.9608      1.00000
     13     -16.8620      1.00000
     14     -16.8563      1.00000
     15     -16.7695      1.00000
     16     -15.5937      1.00000
     17     -13.7667      1.00000
     18     -13.7404      1.00000
     19     -13.7106      1.00000
     20     -13.5483      1.00000
     21     -13.4618      1.00000
     22     -13.4580      1.00000
     23     -13.0005      1.00000
     24     -12.2287      1.00000
     25     -11.7245      1.00000
     26     -11.7187      1.00000
     27     -10.1715      1.00000
     28     -10.1251      1.00000
     29     -10.1214      1.00000
     30      -9.9619      1.00000
     31      -9.9592      1.00000
     32      -9.2340      1.00000
     33      -9.2308      1.00000
     34      -8.6546      1.00000
     35      -8.4890      1.00000
     36      -8.3130      1.00000
     37      -8.3123      1.00000
     38      -8.2026      1.00000
     39      -8.1972      1.00000
     40      -7.8915      1.00000
     41      -7.8335      1.00000
     42      -7.8279      1.00000
     43      -7.4799      1.00000
     44      -5.9825      1.00000
     45      -5.8112      1.00000
     46      -5.8105      1.00000
     47      -4.8323      1.00000
     48      -4.0368      1.00000
     49      -4.0346      1.00000
     50      -3.5241      0.00000
     51      -3.5162      0.00000
     52      -1.0078      0.00000
     53      -0.9979      0.00000
     54      -0.9868      0.00000
     55      -0.6129      0.00000
     56       0.2169      0.00000
     57       0.6561      0.00000
     58       1.1374      0.00000
     59       1.6833      0.00000
     60       1.8262      0.00000
     61       1.8992      0.00000

 k-point     3 :       0.0526    0.0000    0.0000
  band No.  band energies     occupation 
      1     -31.9371      1.00000
      2     -29.7651      1.00000
      3     -29.7603      1.00000
      4     -22.0071      1.00000
      5     -20.2171      1.00000
      6     -20.2113      1.00000
      7     -19.3659      1.00000
      8     -19.3611      1.00000
      9     -19.1183      1.00000
     10     -17.8014      1.00000
     11     -17.0225      1.00000
     12     -17.0040      1.00000
     13     -16.8178      1.00000
     14     -16.7972      1.00000
     15     -16.7691      1.00000
     16     -15.5790      1.00000
     17     -13.8293      1.00000
     18     -13.7442      1.00000
     19     -13.7106      1.00000
     20     -13.4933      1.00000
     21     -13.4619      1.00000
     22     -13.4579      1.00000
     23     -13.0115      1.00000
     24     -12.2281      1.00000
     25     -11.7220      1.00000
     26     -11.7106      1.00000
     27     -10.1708      1.00000
     28     -10.1251      1.00000
     29     -10.1205      1.00000
     30      -9.9646      1.00000
     31      -9.9614      1.00000
     32      -9.2340      1.00000
     33      -9.2308      1.00000
     34      -8.6546      1.00000
     35      -8.4941      1.00000
     36      -8.3448      1.00000
     37      -8.3406      1.00000
     38      -8.1769      1.00000
     39      -8.1641      1.00000
     40      -7.8920      1.00000
     41      -7.8343      1.00000
     42      -7.8260      1.00000
     43      -7.4620      1.00000
     44      -5.9903      1.00000
     45      -5.8085      1.00000
     46      -5.8046      1.00000
     47      -4.8406      1.00000
     48      -4.0906      1.00000
     49      -4.0781      1.00000
     50      -3.4799      0.00000
     51      -3.4584      0.00000
     52      -1.0188      0.00000
     53      -0.9988      0.00000
     54      -0.9784      0.00000
     55      -0.6003      0.00000
     56       0.2214      0.00000
     57       0.6600      0.00000
     58       1.1416      0.00000
     59       1.6685      0.00000
     60       1.8183      0.00000
     61       1.8338      0.00000

 k-point     4 :       0.0789    0.0000    0.0000
  band No.  band energies     occupation 
      1     -31.9371      1.00000
      2     -29.7651      1.00000
      3     -29.7603      1.00000
      4     -22.0066      1.00000
      5     -20.2236      1.00000
      6     -20.2137      1.00000
      7     -19.3609      1.00000
      8     -19.3526      1.00000
      9     -19.1083      1.00000
     10     -17.8212      1.00000
     11     -17.0832      1.00000
     12     -17.0417      1.00000
     13     -16.7808      1.00000
     14     -16.7662      1.00000
     15     -16.7336      1.00000
     16     -15.5548      1.00000
     17     -13.9025      1.00000
     18     -13.7506      1.00000
     19     -13.7106      1.00000
     20     -13.4619      1.00000
     21     -13.4582      1.00000
     22     -13.4324      1.00000
     23     -13.0291      1.00000
     24     -12.2271      1.00000
     25     -11.7180      1.00000
     26     -11.6973      1.00000
     27     -10.1698      1.00000
     28     -10.1252      1.00000
     29     -10.1190      1.00000
     30      -9.9689      1.00000
     31      -9.9650      1.00000
     32      -9.2340      1.00000
     33      -9.2308      1.00000
     34      -8.6546      1.00000
     35      -8.5048      1.00000
     36      -8.3780      1.00000
     37      -8.3715      1.00000
     38      -8.1512      1.00000
     39      -8.1250      1.00000
     40      -7.8928      1.00000
     41      -7.8356      1.00000
     42      -7.8229      1.00000
     43      -7.4329      1.00000
     44      -6.0032      1.00000
     45      -5.8042      1.00000
     46      -5.7948      1.00000
     47      -4.8542      1.00000
     48      -4.1670      1.00000
     49      -4.1337      1.00000
     50      -3.4214      0.00000
     51      -3.3769      0.00000
     52      -1.0382      0.00000
     53      -0.9991      0.00000
     54      -0.9645      0.00000
     55      -0.5795      0.00000
     56       0.2288      0.00000
     57       0.6665      0.00000
     58       1.1485      0.00000
     59       1.6485      0.00000
     60       1.8123      0.00000
     61       1.9161      0.00000

 k-point     5 :       0.1053    0.0000    0.0000
  band No.  band energies     occupation 
      1     -31.9371      1.00000
      2     -29.7651      1.00000
      3     -29.7603      1.00000
      4     -22.0061      1.00000
      5     -20.2322      1.00000
      6     -20.2169      1.00000
      7     -19.3548      1.00000
      8     -19.3409      1.00000
      9     -19.0939      1.00000
     10     -17.8478      1.00000
     11     -17.1467      1.00000
     12     -17.0738      1.00000
     13     -16.7714      1.00000
     14     -16.7405      1.00000
     15     -16.6662      1.00000
     16     -15.5219      1.00000
     17     -13.9804      1.00000
     18     -13.7600      1.00000
     19     -13.7106      1.00000
     20     -13.4619      1.00000
     21     -13.4581      1.00000
     22     -13.3722      1.00000
     23     -13.0524      1.00000
     24     -12.2257      1.00000
     25     -11.7125      1.00000
     26     -11.6796      1.00000
     27     -10.1685      1.00000
     28     -10.1253      1.00000
     29     -10.1167      1.00000
     30      -9.9749      1.00000
     31      -9.9697      1.00000
     32      -9.2340      1.00000
     33      -9.2308      1.00000
     34      -8.6546      1.00000
     35      -8.5240      1.00000
     36      -8.4060      1.00000
     37      -8.4015      1.00000
     38      -8.1286      1.00000
     39      -8.0831      1.00000
     40      -7.8940      1.00000
     41      -7.8372      1.00000
     42      -7.8186      1.00000
     43      -7.3934      1.00000
     44      -6.0211      1.00000
     45      -5.7980      1.00000
     46      -5.7814      1.00000
     47      -4.8729      1.00000
     48      -4.2561      1.00000
     49      -4.1937      1.00000
     50      -3.3575      0.00000
     51      -3.2807      0.00000
     52      -1.0646      0.00000
     53      -0.9991      0.00000
     54      -0.9456      0.00000
     55      -0.5505      0.00000
     56       0.2393      0.00000
     57       0.6756      0.00000
     58       1.1579      0.00000
     59       1.5858      0.00000
     60       1.6558      0.00000
     61       1.8360      0.00000

 k-point     6 :       0.1316    0.0000    0.0000
  band No.  band energies     occupation 
      1     -31.9370      1.00000
      2     -29.7651      1.00000
      3     -29.7603      1.00000
      4     -22.0054      1.00000
      5     -20.2426      1.00000
      6     -20.2207      1.00000
      7     -19.3482      1.00000
      8     -19.3262      1.00000
      9     -19.0751      1.00000
     10     -17.8804      1.00000
     11     -17.2123      1.00000
     12     -17.1007      1.00000
     13     -16.7707      1.00000
     14     -16.7106      1.00000
     15     -16.5954      1.00000
     16     -15.4807      1.00000
     17     -14.0613      1.00000
     18     -13.7726      1.00000
     19     -13.7106      1.00000
     20     -13.4619      1.00000
     21     -13.4581      1.00000
     22     -13.3141      1.00000
     23     -13.0802      1.00000
     24     -12.2240      1.00000
     25     -11.7057      1.00000
     26     -11.6584      1.00000
     27     -10.1670      1.00000
     28     -10.1255      1.00000
     29     -10.1138      1.00000
     30      -9.9823      1.00000
     31      -9.9756      1.00000
     32      -9.2340      1.00000
     33      -9.2308      1.00000
     34      -8.6546      1.00000
     35      -8.5534      1.00000
     36      -8.4325      1.00000
     37      -8.4229      1.00000
     38      -8.1097      1.00000
     39      -8.0395      1.00000
     40      -7.8958      1.00000
     41      -7.8391      1.00000
     42      -7.8134      1.00000
     43      -7.3446      1.00000
     44      -6.0437      1.00000
     45      -5.7901      1.00000
     46      -5.7648      1.00000
     47      -4.8964      1.00000
     48      -4.3526      1.00000
     49      -4.2536      1.00000
     50      -3.2930      0.00000
     51      -3.1745      0.00000
     52      -1.0971      0.00000
     53      -0.9990      0.00000
     54      -0.9223      0.00000
     55      -0.5136      0.00000
     56       0.2526      0.00000
     57       0.6872      0.00000
     58       1.1699      0.00000
     59       1.4027      0.00000
     60       1.5972      0.00000
     61       1.7914      0.00000

 k-point     7 :       0.1579    0.0000    0.0000
  band No.  band energies     occupation 
      1     -31.9370      1.00000
      2     -29.7652      1.00000
      3     -29.7603      1.00000
      4     -22.0046      1.00000
      5     -20.2544      1.00000
      6     -20.2251      1.00000
      7     -19.3415      1.00000
      8     -19.3087      1.00000
      9     -19.0518      1.00000
     10     -17.9178      1.00000
     11     -17.2796      1.00000
     12     -17.1230      1.00000
     13     -16.7705      1.00000
     14     -16.6845      1.00000
     15     -16.5218      1.00000
     16     -15.4323      1.00000
     17     -14.1441      1.00000
     18     -13.7889      1.00000
     19     -13.7106      1.00000
     20     -13.4619      1.00000
     21     -13.4581      1.00000
     22     -13.2588      1.00000
     23     -13.1113      1.00000
     24     -12.2220      1.00000
     25     -11.6975      1.00000
     26     -11.6346      1.00000
     27     -10.1655      1.00000
     28     -10.1257      1.00000
     29     -10.1100      1.00000
     30      -9.9911      1.00000
     31      -9.9825      1.00000
     32      -9.2340      1.00000
     33      -9.2308      1.00000
     34      -8.6547      1.00000
     35      -8.5903      1.00000
     36      -8.4601      1.00000
     37      -8.4340      1.00000
     38      -8.0943      1.00000
     39      -7.9945      1.00000
     40      -7.8981      1.00000
     41      -7.8410      1.00000
     42      -7.8072      1.00000
     43      -7.2878      1.00000
     44      -6.0708      1.00000
     45      -5.7802      1.00000
     46      -5.7454      1.00000
     47      -4.9241      1.00000
     48      -4.4537      1.00000
     49      -4.3109      1.00000
     50      -3.2305      0.00000
     51      -3.0610      0.00000
     52      -1.1347      0.00000
     53      -0.9989      0.00000
     54      -0.8951      0.00000
     55      -0.4692      0.00000
     56       0.2689      0.00000
     57       0.7011      0.00000
     58       0.8325      0.00000
     59       1.1839      0.00000
     60       1.5471      0.00000
     61       1.7757      0.00000

 k-point     8 :       0.1842    0.0000    0.0000
  band No.  band energies     occupation 
      1     -31.9370      1.00000
      2     -29.7652      1.00000
      3     -29.7603      1.00000
      4     -22.0037      1.00000
      5     -20.2670      1.00000
      6     -20.2299      1.00000
      7     -19.3353      1.00000
      8     -19.2887      1.00000
      9     -19.0240      1.00000
     10     -17.9590      1.00000
     11     -17.3480      1.00000
     12     -17.1413      1.00000
     13     -16.7704      1.00000
     14     -16.6623      1.00000
     15     -16.4458      1.00000
     16     -15.3775      1.00000
     17     -14.2285      1.00000
     18     -13.8095      1.00000
     19     -13.7106      1.00000
     20     -13.4619      1.00000
     21     -13.4581      1.00000
     22     -13.2070      1.00000
     23     -13.1441      1.00000
     24     -12.2198      1.00000
     25     -11.6883      1.00000
     26     -11.6090      1.00000
     27     -10.1640      1.00000
     28     -10.1260      1.00000
     29     -10.1056      1.00000
     30     -10.0009      1.00000
     31      -9.9901      1.00000
     32      -9.2340      1.00000
     33      -9.2308      1.00000
     34      -8.6547      1.00000
     35      -8.6308      1.00000
     36      -8.4862      1.00000
     37      -8.4404      1.00000
     38      -8.0819      1.00000
     39      -7.9487      1.00000
     40      -7.9010      1.00000
     41      -7.8428      1.00000
     42      -7.8003      1.00000
     43      -7.2243      1.00000
     44      -6.1018      1.00000
     45      -5.7685      1.00000
     46      -5.7237      1.00000
     47      -4.9556      1.00000
     48      -4.5578      1.00000
     49      -4.3642      1.00000
     50      -3.1716      0.00000
     51      -2.9418      0.00000
     52      -1.1761      0.00000
     53      -0.9988      0.00000
     54      -0.8649      0.00000
     55      -0.4177      0.00000
     56       0.2880      0.00000
     57       0.6662      0.00000
     58       0.7174      0.00000
     59       1.1992      0.00000
     60       1.5036      0.00000
     61       1.7532      0.00000

 k-point     9 :       0.2105    0.0000    0.0000
  band No.  band energies     occupation 
      1     -31.9370      1.00000
      2     -29.7652      1.00000
      3     -29.7603      1.00000
      4     -22.0027      1.00000
      5     -20.2801      1.00000
      6     -20.2350      1.00000
      7     -19.3296      1.00000
      8     -19.2665      1.00000
      9     -18.9922      1.00000
     10     -18.0029      1.00000
     11     -17.4168      1.00000
     12     -17.1562      1.00000
     13     -16.7703      1.00000
     14     -16.6435      1.00000
     15     -16.3679      1.00000
     16     -15.3172      1.00000
     17     -14.3140      1.00000
     18     -13.8348      1.00000
     19     -13.7106      1.00000
     20     -13.4620      1.00000
     21     -13.4581      1.00000
     22     -13.1773      1.00000
     23     -13.1589      1.00000
     24     -12.2174      1.00000
     25     -11.6780      1.00000
     26     -11.5826      1.00000
     27     -10.1626      1.00000
     28     -10.1264      1.00000
     29     -10.1005      1.00000
     30     -10.0115      1.00000
     31      -9.9982      1.00000
     32      -9.2341      1.00000
     33      -9.2308      1.00000
     34      -8.6725      1.00000
     35      -8.6546      1.00000
     36      -8.5104      1.00000
     37      -8.4444      1.00000
     38      -8.0721      1.00000
     39      -7.9046      1.00000
     40      -7.9024      1.00000
     41      -7.8445      1.00000
     42      -7.7929      1.00000
     43      -7.1553      1.00000
     44      -6.1364      1.00000
     45      -5.7547      1.00000
     46      -5.7002      1.00000
     47      -4.9904      1.00000
     48      -4.6634      1.00000
     49      -4.4130      1.00000
     50      -3.1170      0.00000
     51      -2.8179      0.00000
     52      -1.2201      0.00000
     53      -0.9986      0.00000
     54      -0.8325      0.00000
     55      -0.3597      0.00000
     56       0.3099      0.00000
     57       0.5191      0.00000
     58       0.7359      0.00000
     59       1.2145      0.00000
     60       1.4585      0.00000
     61       1.7266      0.00000

 k-point    10 :       0.2368    0.0000    0.0000
  band No.  band energies     occupation 
      1     -31.9370      1.00000
      2     -29.7652      1.00000
      3     -29.7603      1.00000
      4     -22.0017      1.00000
      5     -20.2933      1.00000
      6     -20.2401      1.00000
      7     -19.3248      1.00000
      8     -19.2425      1.00000
      9     -18.9568      1.00000
     10     -18.0484      1.00000
     11     -17.4857      1.00000
     12     -17.1683      1.00000
     13     -16.7703      1.00000
     14     -16.6277      1.00000
     15     -16.2884      1.00000
     16     -15.2522      1.00000
     17     -14.4003      1.00000
     18     -13.8654      1.00000
     19     -13.7106      1.00000
     20     -13.4620      1.00000
     21     -13.4580      1.00000
     22     -13.2095      1.00000
     23     -13.1147      1.00000
     24     -12.2149      1.00000
     25     -11.6670      1.00000
     26     -11.5560      1.00000
     27     -10.1613      1.00000
     28     -10.1268      1.00000
     29     -10.0948      1.00000
     30     -10.0227      1.00000
     31     -10.0067      1.00000
     32      -9.2341      1.00000
     33      -9.2308      1.00000
     34      -8.7133      1.00000
     35      -8.6547      1.00000
     36      -8.5326      1.00000
     37      -8.4470      1.00000
     38      -8.0643      1.00000
     39      -7.9082      1.00000
     40      -7.8566      1.00000
     41      -7.8458      1.00000
     42      -7.7848      1.00000
     43      -7.0819      1.00000
     44      -6.1737      1.00000
     45      -5.7388      1.00000
     46      -5.6755      1.00000
     47      -5.0280      1.00000
     48      -4.7697      1.00000
     49      -4.4569      1.00000
     50      -3.0672      0.00000
     51      -2.6899      0.00000
     52      -1.2656      0.00000
     53      -0.9984      0.00000
     54      -0.7987      0.00000
     55      -0.2959      0.00000
     56       0.3345      0.00000
     57       0.3613      0.00000
     58       0.7560      0.00000
     59       1.2264      0.00000
     60       1.4162      0.00000
     61       1.6977      0.00000

 k-point    11 :       0.2632    0.0000    0.0000
  band No.  band energies     occupation 
      1     -31.9370      1.00000
      2     -29.7652      1.00000
      3     -29.7603      1.00000
      4     -22.0007      1.00000
      5     -20.3062      1.00000
      6     -20.2451      1.00000
      7     -19.3206      1.00000
      8     -19.2170      1.00000
      9     -18.9183      1.00000
     10     -18.0946      1.00000
     11     -17.5540      1.00000
     12     -17.1781      1.00000
     13     -16.7703      1.00000
     14     -16.6146      1.00000
     15     -16.2078      1.00000
     16     -15.1835      1.00000
     17     -14.4869      1.00000
     18     -13.9016      1.00000
     19     -13.7106      1.00000
     20     -13.4620      1.00000
     21     -13.4580      1.00000
     22     -13.2398      1.00000
     23     -13.0746      1.00000
     24     -12.2124      1.00000
     25     -11.6555      1.00000
     26     -11.5300      1.00000
     27     -10.1603      1.00000
     28     -10.1274      1.00000
     29     -10.0888      1.00000
     30     -10.0340      1.00000
     31     -10.0152      1.00000
     32      -9.2341      1.00000
     33      -9.2308      1.00000
     34      -8.7525      1.00000
     35      -8.6547      1.00000
     36      -8.5528      1.00000
     37      -8.4488      1.00000
     38      -8.0581      1.00000
     39      -7.9122      1.00000
     40      -7.8473      1.00000
     41      -7.8117      1.00000
     42      -7.7757      1.00000
     43      -7.0052      1.00000
     44      -6.2131      1.00000
     45      -5.7208      1.00000
     46      -5.6504      1.00000
     47      -5.0677      1.00000
     48      -4.8757      1.00000
     49      -4.4958      1.00000
     50      -3.0224      0.00000
     51      -2.5585      0.00000
     52      -1.3112      0.00000
     53      -0.9982      0.00000
     54      -0.7645      0.00000
     55      -0.2273      0.00000
     56       0.2039      0.00000
     57       0.3619      0.00000
     58       0.7777      0.00000
     59       1.2282      0.00000
     60       1.3852      0.00000
     61       1.6675      0.00000

 k-point    12 :       0.2895    0.0000    0.0000
  band No.  band energies     occupation 
      1     -31.9370      1.00000
      2     -29.7652      1.00000
      3     -29.7603      1.00000
      4     -21.9996      1.00000
      5     -20.3185      1.00000
      6     -20.2500      1.00000
      7     -19.3172      1.00000
      8     -19.1905      1.00000
      9     -18.8775      1.00000
     10     -18.1404      1.00000
     11     -17.6210      1.00000
     12     -17.1860      1.00000
     13     -16.7703      1.00000
     14     -16.6037      1.00000
     15     -16.1264      1.00000
     16     -15.1117      1.00000
     17     -14.5736      1.00000
     18     -13.9436      1.00000
     19     -13.7106      1.00000
     20     -13.4621      1.00000
     21     -13.4580      1.00000
     22     -13.2672      1.00000
     23     -13.0386      1.00000
     24     -12.2098      1.00000
     25     -11.6439      1.00000
     26     -11.5052      1.00000
     27     -10.1594      1.00000
     28     -10.1281      1.00000
     29     -10.0828      1.00000
     30     -10.0451      1.00000
     31     -10.0234      1.00000
     32      -9.2341      1.00000
     33      -9.2308      1.00000
     34      -8.7892      1.00000
     35      -8.6548      1.00000
     36      -8.5710      1.00000
     37      -8.4501      1.00000
     38      -8.0532      1.00000
     39      -7.9164      1.00000
     40      -7.8483      1.00000
     41      -7.7779      1.00000
     42      -7.7567      1.00000
     43      -6.9263      1.00000
     44      -6.2537      1.00000
     45      -5.7007      1.00000
     46      -5.6255      1.00000
     47      -5.1091      1.00000
     48      -4.9805      1.00000
     49      -4.5299      1.00000
     50      -2.9828      0.00000
     51      -2.4242      0.00000
     52      -1.3558      0.00000
     53      -0.9980      0.00000
     54      -0.7308      0.00000
     55      -0.1549      0.00000
     56       0.0458      0.00000
     57       0.3917      0.00000
     58       0.8001      0.00000
     59       1.2109      0.00000
     60       1.3749      0.00000
     61       1.6379      0.00000

 k-point    13 :       0.3158    0.0000    0.0000
  band No.  band energies     occupation 
      1     -31.9370      1.00000
      2     -29.7652      1.00000
      3     -29.7603      1.00000
      4     -21.9987      1.00000
      5     -20.3300      1.00000
      6     -20.2546      1.00000
      7     -19.3144      1.00000
      8     -19.1637      1.00000
      9     -18.8352      1.00000
     10     -18.1849      1.00000
     11     -17.6862      1.00000
     12     -17.1923      1.00000
     13     -16.7703      1.00000
     14     -16.5947      1.00000
     15     -16.0449      1.00000
     16     -15.0378      1.00000
     17     -14.6598      1.00000
     18     -13.9913      1.00000
     19     -13.7106      1.00000
     20     -13.4621      1.00000
     21     -13.4580      1.00000
     22     -13.2913      1.00000
     23     -13.0069      1.00000
     24     -12.2074      1.00000
     25     -11.6324      1.00000
     26     -11.4820      1.00000
     27     -10.1587      1.00000
     28     -10.1290      1.00000
     29     -10.0771      1.00000
     30     -10.0557      1.00000
     31     -10.0310      1.00000
     32      -9.2342      1.00000
     33      -9.2308      1.00000
     34      -8.8230      1.00000
     35      -8.6549      1.00000
     36      -8.5870      1.00000
     37      -8.4512      1.00000
     38      -8.0494      1.00000
     39      -7.9205      1.00000
     40      -7.8492      1.00000
     41      -7.7661      1.00000
     42      -7.7176      1.00000
     43      -6.8463      1.00000
     44      -6.2943      1.00000
     45      -5.6785      1.00000
     46      -5.6014      1.00000
     47      -5.1516      1.00000
     48      -5.0832      1.00000
     49      -4.5592      1.00000
     50      -2.9482      0.00000
     51      -2.2873      0.00000
     52      -1.3982      0.00000
     53      -0.9978      0.00000
     54      -0.6984      0.00000
     55      -0.1094      0.00000
     56      -0.0801      0.00000
     57       0.4240      0.00000
     58       0.8220      0.00000
     59       1.1782      0.00000
     60       1.3824      0.00000
     61       1.6042      0.00000

 k-point    14 :       0.3421    0.0000    0.0000
  band No.  band energies     occupation 
      1     -31.9370      1.00000
      2     -29.7652      1.00000
      3     -29.7603      1.00000
      4     -21.9977      1.00000
      5     -20.3403      1.00000
      6     -20.2588      1.00000
      7     -19.3121      1.00000
      8     -19.1372      1.00000
      9     -18.7924      1.00000
     10     -18.2273      1.00000
     11     -17.7486      1.00000
     12     -17.1974      1.00000
     13     -16.7703      1.00000
     14     -16.5875      1.00000
     15     -15.9638      1.00000
     16     -14.9623      1.00000
     17     -14.7449      1.00000
     18     -14.0443      1.00000
     19     -13.7106      1.00000
     20     -13.4621      1.00000
     21     -13.4580      1.00000
     22     -13.3117      1.00000
     23     -12.9795      1.00000
     24     -12.2052      1.00000
     25     -11.6215      1.00000
     26     -11.4611      1.00000
     27     -10.1581      1.00000
     28     -10.1300      1.00000
     29     -10.0727      1.00000
     30     -10.0648      1.00000
     31     -10.0374      1.00000
     32      -9.2342      1.00000
     33      -9.2308      1.00000
     34      -8.8532      1.00000
     35      -8.6550      1.00000
     36      -8.6009      1.00000
     37      -8.4519      1.00000
     38      -8.0464      1.00000
     39      -7.9244      1.00000
     40      -7.8499      1.00000
     41      -7.7585      1.00000
     42      -7.6770      1.00000
     43      -6.7665      1.00000
     44      -6.3339      1.00000
     45      -5.6540      1.00000
     46      -5.5789      1.00000
     47      -5.1947      1.00000
     48      -5.1823      1.00000
     49      -4.5840      1.00000
     50      -2.9186      0.00000
     51      -2.1484      0.00000
     52      -1.4374      0.00000
     53      -0.9977      0.00000
     54      -0.6684      0.00000
     55      -0.2653      0.00000
     56      -0.0049      0.00000
     57       0.4586      0.00000
     58       0.8413      0.00000
     59       1.1393      0.00000
     60       1.3963      0.00000
     61       1.5804      0.00000

 k-point    15 :       0.3684    0.0000    0.0000
  band No.  band energies     occupation 
      1     -31.9370      1.00000
      2     -29.7652      1.00000
      3     -29.7603      1.00000
      4     -21.9969      1.00000
      5     -20.3494      1.00000
      6     -20.2624      1.00000
      7     -19.3103      1.00000
      8     -19.1117      1.00000
      9     -18.7504      1.00000
     10     -18.2664      1.00000
     11     -17.8071      1.00000
     12     -17.2014      1.00000
     13     -16.7703      1.00000
     14     -16.5816      1.00000
     15     -15.8841      1.00000
     16     -14.8861      1.00000
     17     -14.8279      1.00000
     18     -14.1018      1.00000
     19     -13.7107      1.00000
     20     -13.4622      1.00000
     21     -13.4580      1.00000
     22     -13.3285      1.00000
     23     -12.9563      1.00000
     24     -12.2031      1.00000
     25     -11.6114      1.00000
     26     -11.4427      1.00000
     27     -10.1577      1.00000
     28     -10.1313      1.00000
     29     -10.0754      1.00000
     30     -10.0672      1.00000
     31     -10.0419      1.00000
     32      -9.2342      1.00000
     33      -9.2308      1.00000
     34      -8.8796      1.00000
     35      -8.6551      1.00000
     36      -8.6127      1.00000
     37      -8.4526      1.00000
     38      -8.0441      1.00000
     39      -7.9279      1.00000
     40      -7.8504      1.00000
     41      -7.7523      1.00000
     42      -7.6393      1.00000
     43      -6.6887      1.00000
     44      -6.3711      1.00000
     45      -5.6276      1.00000
     46      -5.5585      1.00000
     47      -5.2768      1.00000
     48      -5.2375      1.00000
     49      -4.6045      1.00000
     50      -2.8939      0.00000
     51      -2.0081      0.00000
     52      -1.4724      0.00000
     53      -0.9975      0.00000
     54      -0.6415      0.00000
     55      -0.4194      0.00000
     56       0.0690      0.00000
     57       0.4952      0.00000
     58       0.8543      0.00000
     59       1.1050      0.00000
     60       1.4039      0.00000
     61       1.5590      0.00000

 k-point    16 :       0.3947    0.0000    0.0000
  band No.  band energies     occupation 
      1     -31.9370      1.00000
      2     -29.7652      1.00000
      3     -29.7603      1.00000
      4     -21.9962      1.00000
      5     -20.3570      1.00000
      6     -20.2656      1.00000
      7     -19.3089      1.00000
      8     -19.0884      1.00000
      9     -18.7106      1.00000
     10     -18.3011      1.00000
     11     -17.8602      1.00000
     12     -17.2044      1.00000
     13     -16.7702      1.00000
     14     -16.5771      1.00000
     15     -15.8075      1.00000
     16     -14.9074      1.00000
     17     -14.8102      1.00000
     18     -14.1627      1.00000
     19     -13.7107      1.00000
     20     -13.4622      1.00000
     21     -13.4580      1.00000
     22     -13.3418      1.00000
     23     -12.9374      1.00000
     24     -12.2014      1.00000
     25     -11.6026      1.00000
     26     -11.4271      1.00000
     27     -10.1575      1.00000
     28     -10.1327      1.00000
     29     -10.0820      1.00000
     30     -10.0666      1.00000
     31     -10.0437      1.00000
     32      -9.2342      1.00000
     33      -9.2308      1.00000
     34      -8.9017      1.00000
     35      -8.6553      1.00000
     36      -8.6223      1.00000
     37      -8.4530      1.00000
     38      -8.0423      1.00000
     39      -7.9309      1.00000
     40      -7.8508      1.00000
     41      -7.7470      1.00000
     42      -7.6057      1.00000
     43      -6.6153      1.00000
     44      -6.4046      1.00000
     45      -5.5992      1.00000
     46      -5.5410      1.00000
     47      -5.3636      1.00000
     48      -5.2800      1.00000
     49      -4.6210      1.00000
     50      -2.8740      0.00000
     51      -1.8674      0.00000
     52      -1.5023      0.00000
     53      -0.9974      0.00000
     54      -0.6206      0.00000
     55      -0.5699      0.00000
     56       0.1382      0.00000
     57       0.5333      0.00000
     58       0.8557      0.00000
     59       1.0826      0.00000
     60       1.3952      0.00000
     61       1.5615      0.00000

 k-point    17 :       0.4211    0.0000    0.0000
  band No.  band energies     occupation 
      1     -31.9370      1.00000
      2     -29.7652      1.00000
      3     -29.7603      1.00000
      4     -21.9956      1.00000
      5     -20.3631      1.00000
      6     -20.2680      1.00000
      7     -19.3078      1.00000
      8     -19.0683      1.00000
      9     -18.6752      1.00000
     10     -18.3302      1.00000
     11     -17.9060      1.00000
     12     -17.2067      1.00000
     13     -16.7702      1.00000
     14     -16.5737      1.00000
     15     -15.7363      1.00000
     16     -14.9807      1.00000
     17     -14.7361      1.00000
     18     -14.2255      1.00000
     19     -13.7107      1.00000
     20     -13.4622      1.00000
     21     -13.4580      1.00000
     22     -13.3518      1.00000
     23     -12.9228      1.00000
     24     -12.1999      1.00000
     25     -11.5953      1.00000
     26     -11.4148      1.00000
     27     -10.1573      1.00000
     28     -10.1342      1.00000
     29     -10.0874      1.00000
     30     -10.0677      1.00000
     31     -10.0431      1.00000
     32      -9.2342      1.00000
     33      -9.2308      1.00000
     34      -8.9192      1.00000
     35      -8.6555      1.00000
     36      -8.6296      1.00000
     37      -8.4534      1.00000
     38      -8.0411      1.00000
     39      -7.9334      1.00000
     40      -7.8511      1.00000
     41      -7.7428      1.00000
     42      -7.5778      1.00000
     43      -6.5494      1.00000
     44      -6.4327      1.00000
     45      -5.5695      1.00000
     46      -5.5270      1.00000
     47      -5.4396      1.00000
     48      -5.3211      1.00000
     49      -4.6336      1.00000
     50      -2.8586      0.00000
     51      -1.7283      0.00000
     52      -1.5263      0.00000
     53      -0.9973      0.00000
     54      -0.7222      0.00000
     55      -0.5980      0.00000
     56       0.1996      0.00000
     57       0.5723      0.00000
     58       0.8414      0.00000
     59       1.0758      0.00000
     60       1.3736      0.00000
     61       1.5844      0.00000

 k-point    18 :       0.4474    0.0000    0.0000
  band No.  band energies     occupation 
      1     -31.9370      1.00000
      2     -29.7652      1.00000
      3     -29.7603      1.00000
      4     -21.9952      1.00000
      5     -20.3675      1.00000
      6     -20.2698      1.00000
      7     -19.3071      1.00000
      8     -19.0527      1.00000
      9     -18.6467      1.00000
     10     -18.3523      1.00000
     11     -17.9418      1.00000
     12     -17.2083      1.00000
     13     -16.7702      1.00000
     14     -16.5714      1.00000
     15     -15.6752      1.00000
     16     -15.0433      1.00000
     17     -14.6666      1.00000
     18     -14.2870      1.00000
     19     -13.7107      1.00000
     20     -13.4622      1.00000
     21     -13.4580      1.00000
     22     -13.3588      1.00000
     23     -12.9123      1.00000
     24     -12.1989      1.00000
     25     -11.5899      1.00000
     26     -11.4058      1.00000
     27     -10.1572      1.00000
     28     -10.1355      1.00000
     29     -10.0912      1.00000
     30     -10.0695      1.00000
     31     -10.0417      1.00000
     32      -9.2342      1.00000
     33      -9.2308      1.00000
     34      -8.9319      1.00000
     35      -8.6558      1.00000
     36      -8.6348      1.00000
     37      -8.4536      1.00000
     38      -8.0402      1.00000
     39      -7.9352      1.00000
     40      -7.8513      1.00000
     41      -7.7397      1.00000
     42      -7.5566      1.00000
     43      -6.4958      1.00000
     44      -6.4542      1.00000
     45      -5.5393      1.00000
     46      -5.5184      1.00000
     47      -5.4988      1.00000
     48      -5.3596      1.00000
     49      -4.6424      1.00000
     50      -2.8477      0.00000
     51      -1.5951      0.00000
     52      -1.5440      0.00000
     53      -0.9972      0.00000
     54      -0.8614      0.00000
     55      -0.5848      0.00000
     56       0.2486      0.00000
     57       0.6106      0.00000
     58       0.8156      0.00000
     59       1.0813      0.00000
     60       1.3474      0.00000
     61       1.6116      0.00000

 k-point    19 :       0.4737    0.0000    0.0000
  band No.  band energies     occupation 
      1     -31.9370      1.00000
      2     -29.7652      1.00000
      3     -29.7603      1.00000
      4     -21.9949      1.00000
      5     -20.3702      1.00000
      6     -20.2709      1.00000
      7     -19.3067      1.00000
      8     -19.0427      1.00000
      9     -18.6279      1.00000
     10     -18.3661      1.00000
     11     -17.9650      1.00000
     12     -17.2092      1.00000
     13     -16.7702      1.00000
     14     -16.5700      1.00000
     15     -15.6317      1.00000
     16     -15.0877      1.00000
     17     -14.6095      1.00000
     18     -14.3395      1.00000
     19     -13.7107      1.00000
     20     -13.4623      1.00000
     21     -13.4580      1.00000
     22     -13.3629      1.00000
     23     -12.9061      1.00000
     24     -12.1983      1.00000
     25     -11.5866      1.00000
     26     -11.4004      1.00000
     27     -10.1571      1.00000
     28     -10.1364      1.00000
     29     -10.0934      1.00000
     30     -10.0709      1.00000
     31     -10.0404      1.00000
     32      -9.2342      1.00000
     33      -9.2308      1.00000
     34      -8.9397      1.00000
     35      -8.6560      1.00000
     36      -8.6378      1.00000
     37      -8.4538      1.00000
     38      -8.0397      1.00000
     39      -7.9363      1.00000
     40      -7.8514      1.00000
     41      -7.7378      1.00000
     42      -7.5434      1.00000
     43      -6.4676      1.00000
     44      -6.4600      1.00000
     45      -5.5427      1.00000
     46      -5.5120      1.00000
     47      -5.5082      1.00000
     48      -5.3920      1.00000
     49      -4.6477      1.00000
     50      -2.8412      0.00000
     51      -1.5548      0.00000
     52      -1.4815      0.00000
     53      -0.9972      0.00000
     54      -0.9789      0.00000
     55      -0.5765      0.00000
     56       0.2823      0.00000
     57       0.6437      0.00000
     58       0.7872      0.00000
     59       1.0902      0.00000
     60       1.3266      0.00000
     61       1.6311      0.00000

 k-point    20 :       0.5000    0.0000    0.0000
  band No.  band energies     occupation 
      1     -31.9370      1.00000
      2     -29.7652      1.00000
      3     -29.7603      1.00000
      4     -21.9948      1.00000
      5     -20.3711      1.00000
      6     -20.2713      1.00000
      7     -19.3066      1.00000
      8     -19.0393      1.00000
      9     -18.6213      1.00000
     10     -18.3708      1.00000
     11     -17.9730      1.00000
     12     -17.2095      1.00000
     13     -16.7702      1.00000
     14     -16.5695      1.00000
     15     -15.6155      1.00000
     16     -15.1042      1.00000
     17     -14.5843      1.00000
     18     -14.3631      1.00000
     19     -13.7107      1.00000
     20     -13.4623      1.00000
     21     -13.4580      1.00000
     22     -13.3643      1.00000
     23     -12.9040      1.00000
     24     -12.1980      1.00000
     25     -11.5854      1.00000
     26     -11.3986      1.00000
     27     -10.1571      1.00000
     28     -10.1368      1.00000
     29     -10.0941      1.00000
     30     -10.0714      1.00000
     31     -10.0400      1.00000
     32      -9.2342      1.00000
     33      -9.2308      1.00000
     34      -8.9422      1.00000
     35      -8.6561      1.00000
     36      -8.6388      1.00000
     37      -8.4538      1.00000
     38      -8.0395      1.00000
     39      -7.9367      1.00000
     40      -7.8515      1.00000
     41      -7.7372      1.00000
     42      -7.5389      1.00000
     43      -6.4722      1.00000
     44      -6.4473      1.00000
     45      -5.5565      1.00000
     46      -5.5065      1.00000
     47      -5.4985      1.00000
     48      -5.4071      1.00000
     49      -4.6494      1.00000
     50      -2.8390      0.00000
     51      -1.5584      0.00000
     52      -1.4290      0.00000
     53      -1.0327      0.00000
     54      -0.9972      0.00000
     55      -0.5737      0.00000
     56       0.2917      0.00000
     57       0.6591      0.00000
     58       0.7731      0.00000
     59       1.0946      0.00000
     60       1.3193      0.00000
     61       1.6276      0.00000

 k-point    21 :       0.0000    0.5000    0.0000
  band No.  band energies     occupation 
      1     -31.9370      1.00000
      2     -29.7652      1.00000
      3     -29.7603      1.00000
      4     -21.9949      1.00000
      5     -20.3694      1.00000
      6     -20.2732      1.00000
      7     -19.3041      1.00000
      8     -19.0409      1.00000
      9     -18.6222      1.00000
     10     -18.3726      1.00000
     11     -17.9730      1.00000
     12     -17.2050      1.00000
     13     -16.7699      1.00000
     14     -16.5705      1.00000
     15     -15.6183      1.00000
     16     -15.1048      1.00000
     17     -14.5817      1.00000
     18     -14.3652      1.00000
     19     -13.7106      1.00000
     20     -13.4620      1.00000
     21     -13.4587      1.00000
     22     -13.3629      1.00000
     23     -12.9040      1.00000
     24     -12.1978      1.00000
     25     -11.5824      1.00000
     26     -11.4016      1.00000
     27     -10.1518      1.00000
     28     -10.1364      1.00000
     29     -10.0967      1.00000
     30     -10.0803      1.00000
     31     -10.0357      1.00000
     32      -9.2347      1.00000
     33      -9.2309      1.00000
     34      -8.9296      1.00000
     35      -8.6675      1.00000
     36      -8.6326      1.00000
     37      -8.4723      1.00000
     38      -8.0218      1.00000
     39      -7.9417      1.00000
     40      -7.8425      1.00000
     41      -7.7392      1.00000
     42      -7.5421      1.00000
     43      -6.4750      1.00000
     44      -6.4507      1.00000
     45      -5.5580      1.00000
     46      -5.5059      1.00000
     47      -5.4948      1.00000
     48      -5.4128      1.00000
     49      -4.6426      1.00000
     50      -2.8378      0.00000
     51      -1.5553      0.00000
     52      -1.4299      0.00000
     53      -1.0356      0.00000
     54      -0.9929      0.00000
     55      -0.5812      0.00000
     56       0.2881      0.00000
     57       0.6864      0.00000
     58       0.7415      0.00000
     59       1.0983      0.00000
     60       1.3284      0.00000
     61       1.6059      0.00000

 k-point    22 :       0.0000    0.4737    0.0000
  band No.  band energies     occupation 
      1     -31.9370      1.00000
      2     -29.7652      1.00000
      3     -29.7603      1.00000
      4     -21.9950      1.00000
      5     -20.3685      1.00000
      6     -20.2729      1.00000
      7     -19.3042      1.00000
      8     -19.0443      1.00000
      9     -18.6288      1.00000
     10     -18.3678      1.00000
     11     -17.9650      1.00000
     12     -17.2047      1.00000
     13     -16.7699      1.00000
     14     -16.5710      1.00000
     15     -15.6344      1.00000
     16     -15.0884      1.00000
     17     -14.6073      1.00000
     18     -14.3411      1.00000
     19     -13.7106      1.00000
     20     -13.4620      1.00000
     21     -13.4586      1.00000
     22     -13.3615      1.00000
     23     -12.9061      1.00000
     24     -12.1980      1.00000
     25     -11.5836      1.00000
     26     -11.4034      1.00000
     27     -10.1518      1.00000
     28     -10.1361      1.00000
     29     -10.0961      1.00000
     30     -10.0799      1.00000
     31     -10.0359      1.00000
     32      -9.2347      1.00000
     33      -9.2309      1.00000
     34      -8.9270      1.00000
     35      -8.6671      1.00000
     36      -8.6319      1.00000
     37      -8.4723      1.00000
     38      -8.0220      1.00000
     39      -7.9413      1.00000
     40      -7.8425      1.00000
     41      -7.7398      1.00000
     42      -7.5466      1.00000
     43      -6.4705      1.00000
     44      -6.4633      1.00000
     45      -5.5441      1.00000
     46      -5.5095      1.00000
     47      -5.5078      1.00000
     48      -5.3965      1.00000
     49      -4.6409      1.00000
     50      -2.8400      0.00000
     51      -1.5517      0.00000
     52      -1.4826      0.00000
     53      -0.9930      0.00000
     54      -0.9815      0.00000
     55      -0.5840      0.00000
     56       0.2768      0.00000
     57       0.6616      0.00000
     58       0.7656      0.00000
     59       1.0941      0.00000
     60       1.3375      0.00000
     61       1.6115      0.00000

 k-point    23 :       0.0000    0.4474    0.0000
  band No.  band energies     occupation 
      1     -31.9370      1.00000
      2     -29.7652      1.00000
      3     -29.7603      1.00000
      4     -21.9952      1.00000
      5     -20.3658      1.00000
      6     -20.2718      1.00000
      7     -19.3047      1.00000
      8     -19.0543      1.00000
      9     -18.6475      1.00000
     10     -18.3540      1.00000
     11     -17.9419      1.00000
     12     -17.2038      1.00000
     13     -16.7699      1.00000
     14     -16.5723      1.00000
     15     -15.6778      1.00000
     16     -15.0441      1.00000
     17     -14.6651      1.00000
     18     -14.2879      1.00000
     19     -13.7106      1.00000
     20     -13.4620      1.00000
     21     -13.4586      1.00000
     22     -13.3574      1.00000
     23     -12.9124      1.00000
     24     -12.1987      1.00000
     25     -11.5869      1.00000
     26     -11.4089      1.00000
     27     -10.1517      1.00000
     28     -10.1351      1.00000
     29     -10.0946      1.00000
     30     -10.0787      1.00000
     31     -10.0363      1.00000
     32      -9.2346      1.00000
     33      -9.2309      1.00000
     34      -8.9193      1.00000
     35      -8.6659      1.00000
     36      -8.6299      1.00000
     37      -8.4721      1.00000
     38      -8.0226      1.00000
     39      -7.9400      1.00000
     40      -7.8424      1.00000
     41      -7.7417      1.00000
     42      -7.5599      1.00000
     43      -6.4992      1.00000
     44      -6.4568      1.00000
     45      -5.5380      1.00000
     46      -5.5164      1.00000
     47      -5.5018      1.00000
     48      -5.3628      1.00000
     49      -4.6357      1.00000
     50      -2.8465      0.00000
     51      -1.5965      0.00000
     52      -1.5409      0.00000
     53      -0.9930      0.00000
     54      -0.8636      0.00000
     55      -0.5924      0.00000
     56       0.2452      0.00000
     57       0.6210      0.00000
     58       0.8014      0.00000
     59       1.0852      0.00000
     60       1.3566      0.00000
     61       1.6181      0.00000

 k-point    24 :       0.0000    0.4211    0.0000
  band No.  band energies     occupation 
      1     -31.9370      1.00000
      2     -29.7652      1.00000
      3     -29.7603      1.00000
      4     -21.9956      1.00000
      5     -20.3614      1.00000
      6     -20.2700      1.00000
      7     -19.3054      1.00000
      8     -19.0699      1.00000
      9     -18.6760      1.00000
     10     -18.3319      1.00000
     11     -17.9061      1.00000
     12     -17.2023      1.00000
     13     -16.7699      1.00000
     14     -16.5747      1.00000
     15     -15.7387      1.00000
     16     -14.9816      1.00000
     17     -14.7349      1.00000
     18     -14.2260      1.00000
     19     -13.7106      1.00000
     20     -13.4620      1.00000
     21     -13.4586      1.00000
     22     -13.3505      1.00000
     23     -12.9229      1.00000
     24     -12.1997      1.00000
     25     -11.5923      1.00000
     26     -11.4178      1.00000
     27     -10.1516      1.00000
     28     -10.1338      1.00000
     29     -10.0924      1.00000
     30     -10.0768      1.00000
     31     -10.0366      1.00000
     32      -9.2346      1.00000
     33      -9.2309      1.00000
     34      -8.9065      1.00000
     35      -8.6641      1.00000
     36      -8.6263      1.00000
     37      -8.4719      1.00000
     38      -8.0236      1.00000
     39      -7.9381      1.00000
     40      -7.8423      1.00000
     41      -7.7447      1.00000
     42      -7.5811      1.00000
     43      -6.5528      1.00000
     44      -6.4353      1.00000
     45      -5.5689      1.00000
     46      -5.5257      1.00000
     47      -5.4421      1.00000
     48      -5.3236      1.00000
     49      -4.6269      1.00000
     50      -2.8574      0.00000
     51      -1.7298      0.00000
     52      -1.5233      0.00000
     53      -0.9931      0.00000
     54      -0.7237      0.00000
     55      -0.6060      0.00000
     56       0.1963      0.00000
     57       0.5791      0.00000
     58       0.8321      0.00000
     59       1.0781      0.00000
     60       1.3813      0.00000
     61       1.5820      0.00000

 k-point    25 :       0.0000    0.3947    0.0000
  band No.  band energies     occupation 
      1     -31.9370      1.00000
      2     -29.7652      1.00000
      3     -29.7603      1.00000
      4     -21.9962      1.00000
      5     -20.3553      1.00000
      6     -20.2675      1.00000
      7     -19.3064      1.00000
      8     -19.0900      1.00000
      9     -18.7114      1.00000
     10     -18.3028      1.00000
     11     -17.8604      1.00000
     12     -17.2001      1.00000
     13     -16.7699      1.00000
     14     -16.5781      1.00000
     15     -15.8097      1.00000
     16     -14.9085      1.00000
     17     -14.8093      1.00000
     18     -14.1629      1.00000
     19     -13.7106      1.00000
     20     -13.4620      1.00000
     21     -13.4585      1.00000
     22     -13.3406      1.00000
     23     -12.9376      1.00000
     24     -12.2012      1.00000
     25     -11.5995      1.00000
     26     -11.4302      1.00000
     27     -10.1516      1.00000
     28     -10.1322      1.00000
     29     -10.0901      1.00000
     30     -10.0738      1.00000
     31     -10.0361      1.00000
     32      -9.2345      1.00000
     33      -9.2309      1.00000
     34      -8.8888      1.00000
     35      -8.6622      1.00000
     36      -8.6207      1.00000
     37      -8.4716      1.00000
     38      -8.0250      1.00000
     39      -7.9354      1.00000
     40      -7.8421      1.00000
     41      -7.7489      1.00000
     42      -7.6091      1.00000
     43      -6.6186      1.00000
     44      -6.4071      1.00000
     45      -5.5991      1.00000
     46      -5.5399      1.00000
     47      -5.3660      1.00000
     48      -5.2819      1.00000
     49      -4.6144      1.00000
     50      -2.8728      0.00000
     51      -1.8690      0.00000
     52      -1.4993      0.00000
     53      -0.9932      0.00000
     54      -0.6251      0.00000
     55      -0.5748      0.00000
     56       0.1358      0.00000
     57       0.5381      0.00000
     58       0.8498      0.00000
     59       1.0831      0.00000
     60       1.4011      0.00000
     61       1.5690      0.00000

 k-point    26 :       0.0000    0.3684    0.0000
  band No.  band energies     occupation 
      1     -31.9370      1.00000
      2     -29.7652      1.00000
      3     -29.7603      1.00000
      4     -21.9969      1.00000
      5     -20.3477      1.00000
      6     -20.2644      1.00000
      7     -19.3079      1.00000
      8     -19.1133      1.00000
      9     -18.7511      1.00000
     10     -18.2681      1.00000
     11     -17.8073      1.00000
     12     -17.1971      1.00000
     13     -16.7699      1.00000
     14     -16.5826      1.00000
     15     -15.8863      1.00000
     16     -14.8854      1.00000
     17     -14.8291      1.00000
     18     -14.1016      1.00000
     19     -13.7106      1.00000
     20     -13.4619      1.00000
     21     -13.4585      1.00000
     22     -13.3274      1.00000
     23     -12.9565      1.00000
     24     -12.2029      1.00000
     25     -11.6083      1.00000
     26     -11.4457      1.00000
     27     -10.1518      1.00000
     28     -10.1306      1.00000
     29     -10.0889      1.00000
     30     -10.0690      1.00000
     31     -10.0344      1.00000
     32      -9.2345      1.00000
     33      -9.2309      1.00000
     34      -8.8666      1.00000
     35      -8.6605      1.00000
     36      -8.6129      1.00000
     37      -8.4711      1.00000
     38      -8.0270      1.00000
     39      -7.9321      1.00000
     40      -7.8419      1.00000
     41      -7.7541      1.00000
     42      -7.6427      1.00000
     43      -6.6921      1.00000
     44      -6.3735      1.00000
     45      -5.6276      1.00000
     46      -5.5575      1.00000
     47      -5.2794      1.00000
     48      -5.2389      1.00000
     49      -4.5981      1.00000
     50      -2.8929      0.00000
     51      -2.0097      0.00000
     52      -1.4695      0.00000
     53      -0.9933      0.00000
     54      -0.6480      0.00000
     55      -0.4224      0.00000
     56       0.0664      0.00000
     57       0.4987      0.00000
     58       0.8515      0.00000
     59       1.1037      0.00000
     60       1.4052      0.00000
     61       1.5635      0.00000

 k-point    27 :       0.0000    0.3421    0.0000
  band No.  band energies     occupation 
      1     -31.9370      1.00000
      2     -29.7652      1.00000
      3     -29.7603      1.00000
      4     -21.9978      1.00000
      5     -20.3386      1.00000
      6     -20.2607      1.00000
      7     -19.3097      1.00000
      8     -19.1387      1.00000
      9     -18.7932      1.00000
     10     -18.2289      1.00000
     11     -17.7488      1.00000
     12     -17.1932      1.00000
     13     -16.7699      1.00000
     14     -16.5884      1.00000
     15     -15.9658      1.00000
     16     -14.9617      1.00000
     17     -14.7462      1.00000
     18     -14.0438      1.00000
     19     -13.7106      1.00000
     20     -13.4619      1.00000
     21     -13.4584      1.00000
     22     -13.3108      1.00000
     23     -12.9797      1.00000
     24     -12.2050      1.00000
     25     -11.6183      1.00000
     26     -11.4641      1.00000
     27     -10.1522      1.00000
     28     -10.1291      1.00000
     29     -10.0897      1.00000
     30     -10.0621      1.00000
     31     -10.0309      1.00000
     32      -9.2344      1.00000
     33      -9.2309      1.00000
     34      -8.8400      1.00000
     35      -8.6590      1.00000
     36      -8.6028      1.00000
     37      -8.4706      1.00000
     38      -8.0296      1.00000
     39      -7.9283      1.00000
     40      -7.8417      1.00000
     41      -7.7602      1.00000
     42      -7.6807      1.00000
     43      -6.7698      1.00000
     44      -6.3361      1.00000
     45      -5.6543      1.00000
     46      -5.5779      1.00000
     47      -5.1974      1.00000
     48      -5.1835      1.00000
     49      -4.5777      1.00000
     50      -2.9176      0.00000
     51      -2.1500      0.00000
     52      -1.4346      0.00000
     53      -0.9934      0.00000
     54      -0.6749      0.00000
     55      -0.2676      0.00000
     56      -0.0070      0.00000
     57       0.4613      0.00000
     58       0.8403      0.00000
     59       1.1369      0.00000
     60       1.3944      0.00000
     61       1.5816      0.00000

 k-point    28 :       0.0000    0.3158    0.0000
  band No.  band energies     occupation 
      1     -31.9370      1.00000
      2     -29.7652      1.00000
      3     -29.7603      1.00000
      4     -21.9987      1.00000
      5     -20.3282      1.00000
      6     -20.2565      1.00000
      7     -19.3120      1.00000
      8     -19.1652      1.00000
      9     -18.8360      1.00000
     10     -18.1865      1.00000
     11     -17.6864      1.00000
     12     -17.1882      1.00000
     13     -16.7699      1.00000
     14     -16.5957      1.00000
     15     -16.0468      1.00000
     16     -15.0373      1.00000
     17     -14.6611      1.00000
     18     -13.9906      1.00000
     19     -13.7106      1.00000
     20     -13.4619      1.00000
     21     -13.4584      1.00000
     22     -13.2905      1.00000
     23     -13.0072      1.00000
     24     -12.2073      1.00000
     25     -11.6293      1.00000
     26     -11.4851      1.00000
     27     -10.1528      1.00000
     28     -10.1279      1.00000
     29     -10.0923      1.00000
     30     -10.0534      1.00000
     31     -10.0259      1.00000
     32      -9.2343      1.00000
     33      -9.2309      1.00000
     34      -8.8093      1.00000
     35      -8.6578      1.00000
     36      -8.5904      1.00000
     37      -8.4698      1.00000
     38      -8.0328      1.00000
     39      -7.9240      1.00000
     40      -7.8413      1.00000
     41      -7.7672      1.00000
     42      -7.7217      1.00000
     43      -6.8495      1.00000
     44      -6.2964      1.00000
     45      -5.6788      1.00000
     46      -5.6004      1.00000
     47      -5.1531      1.00000
     48      -5.0853      1.00000
     49      -4.5531      1.00000
     50      -2.9473      0.00000
     51      -2.2889      0.00000
     52      -1.3955      0.00000
     53      -0.9936      0.00000
     54      -0.7050      0.00000
     55      -0.1122      0.00000
     56      -0.0821      0.00000
     57       0.4262      0.00000
     58       0.8221      0.00000
     59       1.1756      0.00000
     60       1.3788      0.00000
     61       1.6103      0.00000

 k-point    29 :       0.0000    0.2895    0.0000
  band No.  band energies     occupation 
      1     -31.9370      1.00000
      2     -29.7652      1.00000
      3     -29.7603      1.00000
      4     -21.9997      1.00000
      5     -20.3167      1.00000
      6     -20.2520      1.00000
      7     -19.3148      1.00000
      8     -19.1921      1.00000
      9     -18.8782      1.00000
     10     -18.1419      1.00000
     11     -17.6213      1.00000
     12     -17.1820      1.00000
     13     -16.7699      1.00000
     14     -16.6046      1.00000
     15     -16.1282      1.00000
     16     -15.1114      1.00000
     17     -14.5749      1.00000
     18     -13.9427      1.00000
     19     -13.7107      1.00000
     20     -13.4619      1.00000
     21     -13.4583      1.00000
     22     -13.2666      1.00000
     23     -13.0389      1.00000
     24     -12.2097      1.00000
     25     -11.6407      1.00000
     26     -11.5083      1.00000
     27     -10.1537      1.00000
     28     -10.1269      1.00000
     29     -10.0961      1.00000
     30     -10.0434      1.00000
     31     -10.0196      1.00000
     32      -9.2343      1.00000
     33      -9.2308      1.00000
     34      -8.7750      1.00000
     35      -8.6568      1.00000
     36      -8.5757      1.00000
     37      -8.4687      1.00000
     38      -8.0370      1.00000
     39      -7.9196      1.00000
     40      -7.8409      1.00000
     41      -7.7765      1.00000
     42      -7.7632      1.00000
     43      -6.9295      1.00000
     44      -6.2555      1.00000
     45      -5.7012      1.00000
     46      -5.6246      1.00000
     47      -5.1103      1.00000
     48      -4.9828      1.00000
     49      -4.5240      1.00000
     50      -2.9819      0.00000
     51      -2.4258      0.00000
     52      -1.3531      0.00000
     53      -0.9938      0.00000
     54      -0.7372      0.00000
     55      -0.1565      0.00000
     56       0.0435      0.00000
     57       0.3934      0.00000
     58       0.8005      0.00000
     59       1.2085      0.00000
     60       1.3703      0.00000
     61       1.6392      0.00000

 k-point    30 :       0.0000    0.2632    0.0000
  band No.  band energies     occupation 
      1     -31.9370      1.00000
      2     -29.7652      1.00000
      3     -29.7603      1.00000
      4     -22.0007      1.00000
      5     -20.3044      1.00000
      6     -20.2471      1.00000
      7     -19.3183      1.00000
      8     -19.2185      1.00000
      9     -18.9190      1.00000
     10     -18.0960      1.00000
     11     -17.5542      1.00000
     12     -17.1743      1.00000
     13     -16.7699      1.00000
     14     -16.6155      1.00000
     15     -16.2094      1.00000
     16     -15.1832      1.00000
     17     -14.4883      1.00000
     18     -13.9005      1.00000
     19     -13.7107      1.00000
     20     -13.4619      1.00000
     21     -13.4583      1.00000
     22     -13.2393      1.00000
     23     -13.0749      1.00000
     24     -12.2123      1.00000
     25     -11.6523      1.00000
     26     -11.5331      1.00000
     27     -10.1549      1.00000
     28     -10.1260      1.00000
     29     -10.1004      1.00000
     30     -10.0327      1.00000
     31     -10.0123      1.00000
     32      -9.2342      1.00000
     33      -9.2308      1.00000
     34      -8.7376      1.00000
     35      -8.6560      1.00000
     36      -8.5590      1.00000
     37      -8.4672      1.00000
     38      -8.0423      1.00000
     39      -7.9151      1.00000
     40      -7.8409      1.00000
     41      -7.8116      1.00000
     42      -7.7803      1.00000
     43      -7.0084      1.00000
     44      -6.2148      1.00000
     45      -5.7213      1.00000
     46      -5.6495      1.00000
     47      -5.0687      1.00000
     48      -4.8781      1.00000
     49      -4.4902      1.00000
     50      -3.0216      0.00000
     51      -2.5601      0.00000
     52      -1.3087      0.00000
     53      -0.9939      0.00000
     54      -0.7709      0.00000
     55      -0.2286      0.00000
     56       0.2019      0.00000
     57       0.3632      0.00000
     58       0.7783      0.00000
     59       1.2266      0.00000
     60       1.3810      0.00000
     61       1.6840      0.00000

 k-point    31 :       0.0000    0.2368    0.0000
  band No.  band energies     occupation 
      1     -31.9370      1.00000
      2     -29.7652      1.00000
      3     -29.7603      1.00000
      4     -22.0017      1.00000
      5     -20.2915      1.00000
      6     -20.2421      1.00000
      7     -19.3225      1.00000
      8     -19.2439      1.00000
      9     -18.9574      1.00000
     10     -18.0497      1.00000
     11     -17.4859      1.00000
     12     -17.1647      1.00000
     13     -16.7699      1.00000
     14     -16.6287      1.00000
     15     -16.2900      1.00000
     16     -15.2520      1.00000
     17     -14.4016      1.00000
     18     -13.8640      1.00000
     19     -13.7107      1.00000
     20     -13.4619      1.00000
     21     -13.4582      1.00000
     22     -13.2092      1.00000
     23     -13.1151      1.00000
     24     -12.2148      1.00000
     25     -11.6637      1.00000
     26     -11.5592      1.00000
     27     -10.1564      1.00000
     28     -10.1254      1.00000
     29     -10.1048      1.00000
     30     -10.0217      1.00000
     31     -10.0046      1.00000
     32      -9.2342      1.00000
     33      -9.2308      1.00000
     34      -8.6976      1.00000
     35      -8.6551      1.00000
     36      -8.5406      1.00000
     37      -8.4650      1.00000
     38      -8.0489      1.00000
     39      -7.9107      1.00000
     40      -7.8595      1.00000
     41      -7.8376      1.00000
     42      -7.7885      1.00000
     43      -7.0849      1.00000
     44      -6.1751      1.00000
     45      -5.7393      1.00000
     46      -5.6747      1.00000
     47      -5.0288      1.00000
     48      -4.7721      1.00000
     49      -4.4515      1.00000
     50      -3.0664      0.00000
     51      -2.6915      0.00000
     52      -1.2632      0.00000
     53      -0.9941      0.00000
     54      -0.8050      0.00000
     55      -0.2970      0.00000
     56       0.3353      0.00000
     57       0.3768      0.00000
     58       0.7567      0.00000
     59       1.2251      0.00000
     60       1.4110      0.00000
     61       1.7137      0.00000

 k-point    32 :       0.0000    0.2105    0.0000
  band No.  band energies     occupation 
      1     -31.9370      1.00000
      2     -29.7652      1.00000
      3     -29.7603      1.00000
      4     -22.0027      1.00000
      5     -20.2783      1.00000
      6     -20.2369      1.00000
      7     -19.3275      1.00000
      8     -19.2680      1.00000
      9     -18.9928      1.00000
     10     -18.0041      1.00000
     11     -17.4171      1.00000
     12     -17.1528      1.00000
     13     -16.7700      1.00000
     14     -16.6444      1.00000
     15     -16.3693      1.00000
     16     -15.3170      1.00000
     17     -14.3154      1.00000
     18     -13.8333      1.00000
     19     -13.7107      1.00000
     20     -13.4619      1.00000
     21     -13.4582      1.00000
     22     -13.1770      1.00000
     23     -13.1593      1.00000
     24     -12.2173      1.00000
     25     -11.6747      1.00000
     26     -11.5858      1.00000
     27     -10.1582      1.00000
     28     -10.1249      1.00000
     29     -10.1090      1.00000
     30     -10.0107      1.00000
     31      -9.9968      1.00000
     32      -9.2341      1.00000
     33      -9.2308      1.00000
     34      -8.6606      1.00000
     35      -8.6492      1.00000
     36      -8.5210      1.00000
     37      -8.4614      1.00000
     38      -8.0572      1.00000
     39      -7.9095      1.00000
     40      -7.9018      1.00000
     41      -7.8377      1.00000
     42      -7.7962      1.00000
     43      -7.1582      1.00000
     44      -6.1375      1.00000
     45      -5.7552      1.00000
     46      -5.6994      1.00000
     47      -4.9911      1.00000
     48      -4.6660      1.00000
     49      -4.4079      1.00000
     50      -3.1162      0.00000
     51      -2.8194      0.00000
     52      -1.2178      0.00000
     53      -0.9943      0.00000
     54      -0.8387      0.00000
     55      -0.3605      0.00000
     56       0.3106      0.00000
     57       0.5377      0.00000
     58       0.7366      0.00000
     59       1.2134      0.00000
     60       1.4535      0.00000
     61       1.7180      0.00000

 k-point    33 :       0.0000    0.1842    0.0000
  band No.  band energies     occupation 
      1     -31.9370      1.00000
      2     -29.7651      1.00000
      3     -29.7602      1.00000
      4     -22.0037      1.00000
      5     -20.2651      1.00000
      6     -20.2319      1.00000
      7     -19.3332      1.00000
      8     -19.2902      1.00000
      9     -19.0246      1.00000
     10     -17.9601      1.00000
     11     -17.3482      1.00000
     12     -17.1382      1.00000
     13     -16.7700      1.00000
     14     -16.6633      1.00000
     15     -16.4471      1.00000
     16     -15.3774      1.00000
     17     -14.2299      1.00000
     18     -13.8078      1.00000
     19     -13.7107      1.00000
     20     -13.4619      1.00000
     21     -13.4582      1.00000
     22     -13.2075      1.00000
     23     -13.1439      1.00000
     24     -12.2197      1.00000
     25     -11.6849      1.00000
     26     -11.6123      1.00000
     27     -10.1603      1.00000
     28     -10.1245      1.00000
     29     -10.1127      1.00000
     30     -10.0003      1.00000
     31      -9.9891      1.00000
     32      -9.2341      1.00000
     33      -9.2308      1.00000
     34      -8.6559      1.00000
     35      -8.6098      1.00000
     36      -8.5015      1.00000
     37      -8.4548      1.00000
     38      -8.0678      1.00000
     39      -7.9516      1.00000
     40      -7.9021      1.00000
     41      -7.8368      1.00000
     42      -7.8036      1.00000
     43      -7.2270      1.00000
     44      -6.1028      1.00000
     45      -5.7690      1.00000
     46      -5.7229      1.00000
     47      -4.9561      1.00000
     48      -4.5604      1.00000
     49      -4.3594      1.00000
     50      -3.1708      0.00000
     51      -2.9433      0.00000
     52      -1.1739      0.00000
     53      -0.9944      0.00000
     54      -0.8711      0.00000
     55      -0.4183      0.00000
     56       0.2885      0.00000
     57       0.7148      0.00000
     58       0.7192      0.00000
     59       1.1983      0.00000
     60       1.5044      0.00000
     61       1.7563      0.00000

 k-point    34 :       0.0000    0.1579    0.0000
  band No.  band energies     occupation 
      1     -31.9370      1.00000
      2     -29.7651      1.00000
      3     -29.7602      1.00000
      4     -22.0046      1.00000
      5     -20.2525      1.00000
      6     -20.2271      1.00000
      7     -19.3396      1.00000
      8     -19.3102      1.00000
      9     -19.0522      1.00000
     10     -17.9187      1.00000
     11     -17.2799      1.00000
     12     -17.1202      1.00000
     13     -16.7700      1.00000
     14     -16.6856      1.00000
     15     -16.5229      1.00000
     16     -15.4322      1.00000
     17     -14.1456      1.00000
     18     -13.7871      1.00000
     19     -13.7107      1.00000
     20     -13.4619      1.00000
     21     -13.4581      1.00000
     22     -13.2594      1.00000
     23     -13.1112      1.00000
     24     -12.2220      1.00000
     25     -11.6941      1.00000
     26     -11.6379      1.00000
     27     -10.1626      1.00000
     28     -10.1242      1.00000
     29     -10.1158      1.00000
     30      -9.9906      1.00000
     31      -9.9819      1.00000
     32      -9.2340      1.00000
     33      -9.2308      1.00000
     34      -8.6553      1.00000
     35      -8.5669      1.00000
     36      -8.4835      1.00000
     37      -8.4425      1.00000
     38      -8.0810      1.00000
     39      -7.9972      1.00000
     40      -7.8990      1.00000
     41      -7.8356      1.00000
     42      -7.8104      1.00000
     43      -7.2902      1.00000
     44      -6.0715      1.00000
     45      -5.7808      1.00000
     46      -5.7447      1.00000
     47      -4.9245      1.00000
     48      -4.4566      1.00000
     49      -4.3063      1.00000
     50      -3.2297      0.00000
     51      -3.0625      0.00000
     52      -1.1327      0.00000
     53      -0.9945      0.00000
     54      -0.9012      0.00000
     55      -0.4697      0.00000
     56       0.2692      0.00000
     57       0.7016      0.00000
     58       0.8151      0.00000
     59       1.1832      0.00000
     60       1.5444      0.00000
     61       1.7626      0.00000

 k-point    35 :       0.0000    0.1316    0.0000
  band No.  band energies     occupation 
      1     -31.9370      1.00000
      2     -29.7651      1.00000
      3     -29.7602      1.00000
      4     -22.0054      1.00000
      5     -20.2407      1.00000
      6     -20.2228      1.00000
      7     -19.3464      1.00000
      8     -19.3276      1.00000
      9     -19.0755      1.00000
     10     -17.8810      1.00000
     11     -17.2126      1.00000
     12     -17.0982      1.00000
     13     -16.7701      1.00000
     14     -16.7118      1.00000
     15     -16.5963      1.00000
     16     -15.4807      1.00000
     17     -14.0627      1.00000
     18     -13.7707      1.00000
     19     -13.7107      1.00000
     20     -13.4619      1.00000
     21     -13.4581      1.00000
     22     -13.3146      1.00000
     23     -13.0802      1.00000
     24     -12.2240      1.00000
     25     -11.7022      1.00000
     26     -11.6618      1.00000
     27     -10.1649      1.00000
     28     -10.1241      1.00000
     29     -10.1182      1.00000
     30      -9.9819      1.00000
     31      -9.9753      1.00000
     32      -9.2340      1.00000
     33      -9.2308      1.00000
     34      -8.6551      1.00000
     35      -8.5291      1.00000
     36      -8.4650      1.00000
     37      -8.4227      1.00000
     38      -8.0976      1.00000
     39      -8.0420      1.00000
     40      -7.8964      1.00000
     41      -7.8344      1.00000
     42      -7.8164      1.00000
     43      -7.3466      1.00000
     44      -6.0443      1.00000
     45      -5.7907      1.00000
     46      -5.7641      1.00000
     47      -4.8967      1.00000
     48      -4.3556      1.00000
     49      -4.2492      1.00000
     50      -3.2921      0.00000
     51      -3.1760      0.00000
     52      -1.0953      0.00000
     53      -0.9946      0.00000
     54      -0.9283      0.00000
     55      -0.5139      0.00000
     56       0.2529      0.00000
     57       0.6875      0.00000
     58       1.0976      0.00000
     59       1.1694      0.00000
     60       1.5852      0.00000
     61       1.7817      0.00000

 k-point    36 :       0.0000    0.1053    0.0000
  band No.  band energies     occupation 
      1     -31.9370      1.00000
      2     -29.7651      1.00000
      3     -29.7603      1.00000
      4     -22.0061      1.00000
      5     -20.2302      1.00000
      6     -20.2189      1.00000
      7     -19.3532      1.00000
      8     -19.3423      1.00000
      9     -19.0942      1.00000
     10     -17.8483      1.00000
     11     -17.1470      1.00000
     12     -17.0717      1.00000
     13     -16.7703      1.00000
     14     -16.7422      1.00000
     15     -16.6668      1.00000
     16     -15.5218      1.00000
     17     -13.9819      1.00000
     18     -13.7580      1.00000
     19     -13.7107      1.00000
     20     -13.4619      1.00000
     21     -13.4581      1.00000
     22     -13.3728      1.00000
     23     -13.0524      1.00000
     24     -12.2257      1.00000
     25     -11.7091      1.00000
     26     -11.6830      1.00000
     27     -10.1671      1.00000
     28     -10.1241      1.00000
     29     -10.1199      1.00000
     30      -9.9746      1.00000
     31      -9.9696      1.00000
     32      -9.2340      1.00000
     33      -9.2308      1.00000
     34      -8.6549      1.00000
     35      -8.5050      1.00000
     36      -8.4364      1.00000
     37      -8.3973      1.00000
     38      -8.1179      1.00000
     39      -8.0856      1.00000
     40      -7.8944      1.00000
     41      -7.8332      1.00000
     42      -7.8216      1.00000
     43      -7.3949      1.00000
     44      -6.0215      1.00000
     45      -5.7986      1.00000
     46      -5.7807      1.00000
     47      -4.8731      1.00000
     48      -4.2593      1.00000
     49      -4.1895      1.00000
     50      -3.3565      0.00000
     51      -3.2822      0.00000
     52      -1.0630      0.00000
     53      -0.9945      0.00000
     54      -0.9516      0.00000
     55      -0.5507      0.00000
     56       0.2394      0.00000
     57       0.6758      0.00000
     58       1.1576      0.00000
     59       1.6004      0.00000
     60       1.7098      0.00000
     61       1.7944      0.00000

 k-point    37 :       0.0000    0.0789    0.0000
  band No.  band energies     occupation 
      1     -31.9370      1.00000
      2     -29.7651      1.00000
      3     -29.7602      1.00000
      4     -22.0066      1.00000
      5     -20.2216      1.00000
      6     -20.2157      1.00000
      7     -19.3595      1.00000
      8     -19.3539      1.00000
      9     -19.1084      1.00000
     10     -17.8215      1.00000
     11     -17.0836      1.00000
     12     -17.0400      1.00000
     13     -16.7783      1.00000
     14     -16.7697      1.00000
     15     -16.7336      1.00000
     16     -15.5548      1.00000
     17     -13.9040      1.00000
     18     -13.7486      1.00000
     19     -13.7107      1.00000
     20     -13.4619      1.00000
     21     -13.4581      1.00000
     22     -13.4330      1.00000
     23     -13.0291      1.00000
     24     -12.2271      1.00000
     25     -11.7145      1.00000
     26     -11.7007      1.00000
     27     -10.1690      1.00000
     28     -10.1243      1.00000
     29     -10.1209      1.00000
     30      -9.9687      1.00000
     31      -9.9649      1.00000
     32      -9.2340      1.00000
     33      -9.2308      1.00000
     34      -8.6547      1.00000
     35      -8.4945      1.00000
     36      -8.3969      1.00000
     37      -8.3687      1.00000
     38      -8.1422      1.00000
     39      -8.1274      1.00000
     40      -7.8930      1.00000
     41      -7.8323      1.00000
     42      -7.8256      1.00000
     43      -7.4339      1.00000
     44      -6.0034      1.00000
     45      -5.8048      1.00000
     46      -5.7941      1.00000
     47      -4.8543      1.00000
     48      -4.1706      1.00000
     49      -4.1294      1.00000
     50      -3.4201      0.00000
     51      -3.3786      0.00000
     52      -1.0369      0.00000
     53      -0.9944      0.00000
     54      -0.9703      0.00000
     55      -0.5796      0.00000
     56       0.2289      0.00000
     57       0.6666      0.00000
     58       1.1483      0.00000
     59       1.6491      0.00000
     60       1.8040      0.00000
     61       1.8220      0.00000

 k-point    38 :       0.0000    0.0526    0.0000
  band No.  band energies     occupation 
      1     -31.9371      1.00000
      2     -29.7651      1.00000
      3     -29.7603      1.00000
      4     -22.0071      1.00000
      5     -20.2152      1.00000
      6     -20.2132      1.00000
      7     -19.3648      1.00000
      8     -19.3621      1.00000
      9     -19.1184      1.00000
     10     -17.8016      1.00000
     11     -17.0229      1.00000
     12     -17.0027      1.00000
     13     -16.8175      1.00000
     14     -16.7984      1.00000
     15     -16.7689      1.00000
     16     -15.5789      1.00000
     17     -13.8309      1.00000
     18     -13.7421      1.00000
     19     -13.7107      1.00000
     20     -13.4938      1.00000
     21     -13.4618      1.00000
     22     -13.4579      1.00000
     23     -13.0115      1.00000
     24     -12.2281      1.00000
     25     -11.7185      1.00000
     26     -11.7140      1.00000
     27     -10.1705      1.00000
     28     -10.1247      1.00000
     29     -10.1215      1.00000
     30      -9.9645      1.00000
     31      -9.9614      1.00000
     32      -9.2340      1.00000
     33      -9.2308      1.00000
     34      -8.6547      1.00000
     35      -8.4900      1.00000
     36      -8.3548      1.00000
     37      -8.3388      1.00000
     38      -8.1701      1.00000
     39      -8.1665      1.00000
     40      -7.8920      1.00000
     41      -7.8321      1.00000
     42      -7.8279      1.00000
     43      -7.4625      1.00000
     44      -5.9904      1.00000
     45      -5.8091      1.00000
     46      -5.8040      1.00000
     47      -4.8406      1.00000
     48      -4.0946      1.00000
     49      -4.0738      1.00000
     50      -3.4783      0.00000
     51      -3.4602      0.00000
     52      -1.0182      0.00000
     53      -0.9940      0.00000
     54      -0.9838      0.00000
     55      -0.6004      0.00000
     56       0.2214      0.00000
     57       0.6600      0.00000
     58       1.1415      0.00000
     59       1.6713      0.00000
     60       1.8220      0.00000
     61       1.8415      0.00000

 k-point    39 :       0.0000    0.0263    0.0000
  band No.  band energies     occupation 
      1     -31.9371      1.00000
      2     -29.7651      1.00000
      3     -29.7603      1.00000
      4     -22.0073      1.00000
      5     -20.2123      1.00000
      6     -20.2106      1.00000
      7     -19.3687      1.00000
      8     -19.3666      1.00000
      9     -19.1242      1.00000
     10     -17.7893      1.00000
     11     -16.9658      1.00000
     12     -16.9598      1.00000
     13     -16.8621      1.00000
     14     -16.8565      1.00000
     15     -16.7695      1.00000
     16     -15.5937      1.00000
     17     -13.7686      1.00000
     18     -13.7383      1.00000
     19     -13.7106      1.00000
     20     -13.5485      1.00000
     21     -13.4618      1.00000
     22     -13.4580      1.00000
     23     -13.0005      1.00000
     24     -12.2287      1.00000
     25     -11.7227      1.00000
     26     -11.7205      1.00000
     27     -10.1714      1.00000
     28     -10.1249      1.00000
     29     -10.1217      1.00000
     30      -9.9619      1.00000
     31      -9.9592      1.00000
     32      -9.2340      1.00000
     33      -9.2308      1.00000
     34      -8.6546      1.00000
     35      -8.4881      1.00000
     36      -8.3171      1.00000
     37      -8.3110      1.00000
     38      -8.2002      1.00000
     39      -8.1978      1.00000
     40      -7.8915      1.00000
     41      -7.8328      1.00000
     42      -7.8285      1.00000
     43      -7.4800      1.00000
     44      -5.9825      1.00000
     45      -5.8117      1.00000
     46      -5.8099      1.00000
     47      -4.8323      1.00000
     48      -4.0402      1.00000
     49      -4.0312      1.00000
     50      -3.5226      0.00000
     51      -3.5178      0.00000
     52      -1.0077      0.00000
     53      -0.9950      0.00000
     54      -0.9898      0.00000
     55      -0.6129      0.00000
     56       0.2169      0.00000
     57       0.6561      0.00000
     58       1.1374      0.00000
     59       1.6837      0.00000
     60       1.8240      0.00000
     61       1.8587      0.00000

 k-point    40 :       0.0000    0.0000    0.0000
  band No.  band energies     occupation 
      1     -31.9371      1.00000
      2     -29.7651      1.00000
      3     -29.7603      1.00000
      4     -22.0074      1.00000
      5     -20.2117      1.00000
      6     -20.2093      1.00000
      7     -19.3702      1.00000
      8     -19.3680      1.00000
      9     -19.1262      1.00000
     10     -17.7852      1.00000
     11     -16.9188      1.00000
     12     -16.9160      1.00000
     13     -16.9066      1.00000
     14     -16.9038      1.00000
     15     -16.7695      1.00000
     16     -15.5986      1.00000
     17     -13.7392      1.00000
     18     -13.7366      1.00000
     19     -13.7106      1.00000
     20     -13.5758      1.00000
     21     -13.4618      1.00000
     22     -13.4580      1.00000
     23     -12.9968      1.00000
     24     -12.2289      1.00000
     25     -11.7255      1.00000
     26     -11.7214      1.00000
     27     -10.1717      1.00000
     28     -10.1250      1.00000
     29     -10.1217      1.00000
     30      -9.9611      1.00000
     31      -9.9585      1.00000
     32      -9.2340      1.00000
     33      -9.2308      1.00000
     34      -8.6546      1.00000
     35      -8.4875      1.00000
     36      -8.2984      1.00000
     37      -8.2968      1.00000
     38      -8.2164      1.00000
     39      -8.2129      1.00000
     40      -7.8914      1.00000
     41      -7.8332      1.00000
     42      -7.8286      1.00000
     43      -7.4859      1.00000
     44      -5.9799      1.00000
     45      -5.8126      1.00000
     46      -5.8119      1.00000
     47      -4.8295      1.00000
     48      -4.0198      1.00000
     49      -4.0144      1.00000
     50      -3.5413      0.00000
     51      -3.5378      0.00000
     52      -1.0047      0.00000
     53      -0.9969      0.00000
     54      -0.9896      0.00000
     55      -0.6171      0.00000
     56       0.2154      0.00000
     57       0.6548      0.00000
     58       1.1360      0.00000
     59       1.6870      0.00000
     60       1.8313      0.00000
     61       1.8390      0.00000

 k-point    41 :       0.0000    0.0000    0.0000
  band No.  band energies     occupation 
      1     -31.9371      1.00000
      2     -29.7651      1.00000
      3     -29.7603      1.00000
      4     -22.0074      1.00000
      5     -20.2117      1.00000
      6     -20.2093      1.00000
      7     -19.3702      1.00000
      8     -19.3680      1.00000
      9     -19.1262      1.00000
     10     -17.7852      1.00000
     11     -16.9188      1.00000
     12     -16.9160      1.00000
     13     -16.9066      1.00000
     14     -16.9038      1.00000
     15     -16.7695      1.00000
     16     -15.5986      1.00000
     17     -13.7392      1.00000
     18     -13.7366      1.00000
     19     -13.7106      1.00000
     20     -13.5758      1.00000
     21     -13.4618      1.00000
     22     -13.4580      1.00000
     23     -12.9968      1.00000
     24     -12.2289      1.00000
     25     -11.7255      1.00000
     26     -11.7214      1.00000
     27     -10.1717      1.00000
     28     -10.1250      1.00000
     29     -10.1217      1.00000
     30      -9.9611      1.00000
     31      -9.9585      1.00000
     32      -9.2340      1.00000
     33      -9.2308      1.00000
     34      -8.6546      1.00000
     35      -8.4875      1.00000
     36      -8.2984      1.00000
     37      -8.2968      1.00000
     38      -8.2164      1.00000
     39      -8.2129      1.00000
     40      -7.8914      1.00000
     41      -7.8332      1.00000
     42      -7.8286      1.00000
     43      -7.4859      1.00000
     44      -5.9799      1.00000
     45      -5.8126      1.00000
     46      -5.8119      1.00000
     47      -4.8295      1.00000
     48      -4.0198      1.00000
     49      -4.0144      1.00000
     50      -3.5413      0.00000
     51      -3.5378      0.00000
     52      -1.0047      0.00000
     53      -0.9969      0.00000
     54      -0.9896      0.00000
     55      -0.6171      0.00000
     56       0.2154      0.00000
     57       0.6548      0.00000
     58       1.1360      0.00000
     59       1.6868      0.00000
     60       1.8368      0.00000
     61       1.8790      0.00000

 k-point    42 :       0.0000    0.0000    0.0263
  band No.  band energies     occupation 
      1     -31.9371      1.00000
      2     -29.7651      1.00000
      3     -29.7603      1.00000
      4     -22.0074      1.00000
      5     -20.2117      1.00000
      6     -20.2093      1.00000
      7     -19.3702      1.00000
      8     -19.3680      1.00000
      9     -19.1262      1.00000
     10     -17.7852      1.00000
     11     -16.9188      1.00000
     12     -16.9160      1.00000
     13     -16.9066      1.00000
     14     -16.9038      1.00000
     15     -16.7695      1.00000
     16     -15.5986      1.00000
     17     -13.7392      1.00000
     18     -13.7366      1.00000
     19     -13.7106      1.00000
     20     -13.5758      1.00000
     21     -13.4618      1.00000
     22     -13.4580      1.00000
     23     -12.9968      1.00000
     24     -12.2289      1.00000
     25     -11.7255      1.00000
     26     -11.7214      1.00000
     27     -10.1717      1.00000
     28     -10.1250      1.00000
     29     -10.1217      1.00000
     30      -9.9611      1.00000
     31      -9.9585      1.00000
     32      -9.2340      1.00000
     33      -9.2307      1.00000
     34      -8.6546      1.00000
     35      -8.4875      1.00000
     36      -8.2984      1.00000
     37      -8.2968      1.00000
     38      -8.2164      1.00000
     39      -8.2129      1.00000
     40      -7.8914      1.00000
     41      -7.8332      1.00000
     42      -7.8286      1.00000
     43      -7.4859      1.00000
     44      -5.9799      1.00000
     45      -5.8126      1.00000
     46      -5.8119      1.00000
     47      -4.8295      1.00000
     48      -4.0198      1.00000
     49      -4.0144      1.00000
     50      -3.5413      0.00000
     51      -3.5378      0.00000
     52      -1.0047      0.00000
     53      -0.9969      0.00000
     54      -0.9896      0.00000
     55      -0.6171      0.00000
     56       0.2155      0.00000
     57       0.6545      0.00000
     58       1.1369      0.00000
     59       1.6857      0.00000
     60       1.8293      0.00000
     61       1.9008      0.00000

 k-point    43 :       0.0000    0.0000    0.0526
  band No.  band energies     occupation 
      1     -31.9371      1.00000
      2     -29.7651      1.00000
      3     -29.7603      1.00000
      4     -22.0074      1.00000
      5     -20.2117      1.00000
      6     -20.2093      1.00000
      7     -19.3702      1.00000
      8     -19.3680      1.00000
      9     -19.1262      1.00000
     10     -17.7852      1.00000
     11     -16.9188      1.00000
     12     -16.9160      1.00000
     13     -16.9066      1.00000
     14     -16.9038      1.00000
     15     -16.7695      1.00000
     16     -15.5986      1.00000
     17     -13.7392      1.00000
     18     -13.7366      1.00000
     19     -13.7106      1.00000
     20     -13.5758      1.00000
     21     -13.4618      1.00000
     22     -13.4580      1.00000
     23     -12.9968      1.00000
     24     -12.2289      1.00000
     25     -11.7255      1.00000
     26     -11.7214      1.00000
     27     -10.1717      1.00000
     28     -10.1250      1.00000
     29     -10.1217      1.00000
     30      -9.9611      1.00000
     31      -9.9585      1.00000
     32      -9.2340      1.00000
     33      -9.2308      1.00000
     34      -8.6546      1.00000
     35      -8.4875      1.00000
     36      -8.2984      1.00000
     37      -8.2968      1.00000
     38      -8.2164      1.00000
     39      -8.2129      1.00000
     40      -7.8914      1.00000
     41      -7.8332      1.00000
     42      -7.8286      1.00000
     43      -7.4859      1.00000
     44      -5.9799      1.00000
     45      -5.8126      1.00000
     46      -5.8119      1.00000
     47      -4.8295      1.00000
     48      -4.0198      1.00000
     49      -4.0144      1.00000
     50      -3.5413      0.00000
     51      -3.5378      0.00000
     52      -1.0047      0.00000
     53      -0.9969      0.00000
     54      -0.9896      0.00000
     55      -0.6171      0.00000
     56       0.2156      0.00000
     57       0.6536      0.00000
     58       1.1395      0.00000
     59       1.6815      0.00000
     60       1.8259      0.00000
     61       1.8547      0.00000

 k-point    44 :       0.0000    0.0000    0.0789
  band No.  band energies     occupation 
      1     -31.9371      1.00000
      2     -29.7651      1.00000
      3     -29.7603      1.00000
      4     -22.0074      1.00000
      5     -20.2117      1.00000
      6     -20.2093      1.00000
      7     -19.3702      1.00000
      8     -19.3680      1.00000
      9     -19.1262      1.00000
     10     -17.7852      1.00000
     11     -16.9188      1.00000
     12     -16.9160      1.00000
     13     -16.9066      1.00000
     14     -16.9038      1.00000
     15     -16.7695      1.00000
     16     -15.5986      1.00000
     17     -13.7392      1.00000
     18     -13.7366      1.00000
     19     -13.7106      1.00000
     20     -13.5758      1.00000
     21     -13.4618      1.00000
     22     -13.4580      1.00000
     23     -12.9968      1.00000
     24     -12.2289      1.00000
     25     -11.7255      1.00000
     26     -11.7214      1.00000
     27     -10.1717      1.00000
     28     -10.1250      1.00000
     29     -10.1217      1.00000
     30      -9.9611      1.00000
     31      -9.9585      1.00000
     32      -9.2340      1.00000
     33      -9.2308      1.00000
     34      -8.6546      1.00000
     35      -8.4875      1.00000
     36      -8.2984      1.00000
     37      -8.2968      1.00000
     38      -8.2164      1.00000
     39      -8.2129      1.00000
     40      -7.8914      1.00000
     41      -7.8332      1.00000
     42      -7.8286      1.00000
     43      -7.4859      1.00000
     44      -5.9799      1.00000
     45      -5.8126      1.00000
     46      -5.8119      1.00000
     47      -4.8295      1.00000
     48      -4.0198      1.00000
     49      -4.0144      1.00000
     50      -3.5413      0.00000
     51      -3.5378      0.00000
     52      -1.0047      0.00000
     53      -0.9969      0.00000
     54      -0.9896      0.00000
     55      -0.6171      0.00000
     56       0.2158      0.00000
     57       0.6522      0.00000
     58       1.1438      0.00000
     59       1.6753      0.00000
     60       1.8287      0.00000
     61       1.9722      0.00000

 k-point    45 :       0.0000    0.0000    0.1053
  band No.  band energies     occupation 
      1     -31.9370      1.00000
      2     -29.7651      1.00000
      3     -29.7602      1.00000
      4     -22.0074      1.00000
      5     -20.2117      1.00000
      6     -20.2093      1.00000
      7     -19.3702      1.00000
      8     -19.3680      1.00000
      9     -19.1262      1.00000
     10     -17.7852      1.00000
     11     -16.9188      1.00000
     12     -16.9160      1.00000
     13     -16.9066      1.00000
     14     -16.9038      1.00000
     15     -16.7695      1.00000
     16     -15.5986      1.00000
     17     -13.7392      1.00000
     18     -13.7366      1.00000
     19     -13.7106      1.00000
     20     -13.5758      1.00000
     21     -13.4618      1.00000
     22     -13.4580      1.00000
     23     -12.9968      1.00000
     24     -12.2289      1.00000
     25     -11.7255      1.00000
     26     -11.7214      1.00000
     27     -10.1717      1.00000
     28     -10.1250      1.00000
     29     -10.1217      1.00000
     30      -9.9611      1.00000
     31      -9.9585      1.00000
     32      -9.2340      1.00000
     33      -9.2308      1.00000
     34      -8.6546      1.00000
     35      -8.4875      1.00000
     36      -8.2984      1.00000
     37      -8.2968      1.00000
     38      -8.2164      1.00000
     39      -8.2129      1.00000
     40      -7.8914      1.00000
     41      -7.8332      1.00000
     42      -7.8286      1.00000
     43      -7.4859      1.00000
     44      -5.9799      1.00000
     45      -5.8126      1.00000
     46      -5.8119      1.00000
     47      -4.8295      1.00000
     48      -4.0198      1.00000
     49      -4.0144      1.00000
     50      -3.5413      0.00000
     51      -3.5378      0.00000
     52      -1.0047      0.00000
     53      -0.9969      0.00000
     54      -0.9896      0.00000
     55      -0.6171      0.00000
     56       0.2160      0.00000
     57       0.6503      0.00000
     58       1.1498      0.00000
     59       1.6665      0.00000
     60       1.8301      0.00000
     61       1.9120      0.00000

 k-point    46 :       0.0000    0.0000    0.1316
  band No.  band energies     occupation 
      1     -31.9370      1.00000
      2     -29.7651      1.00000
      3     -29.7602      1.00000
      4     -22.0074      1.00000
      5     -20.2117      1.00000
      6     -20.2093      1.00000
      7     -19.3702      1.00000
      8     -19.3680      1.00000
      9     -19.1262      1.00000
     10     -17.7852      1.00000
     11     -16.9188      1.00000
     12     -16.9160      1.00000
     13     -16.9066      1.00000
     14     -16.9038      1.00000
     15     -16.7695      1.00000
     16     -15.5986      1.00000
     17     -13.7392      1.00000
     18     -13.7366      1.00000
     19     -13.7106      1.00000
     20     -13.5758      1.00000
     21     -13.4618      1.00000
     22     -13.4580      1.00000
     23     -12.9968      1.00000
     24     -12.2289      1.00000
     25     -11.7255      1.00000
     26     -11.7214      1.00000
     27     -10.1717      1.00000
     28     -10.1250      1.00000
     29     -10.1217      1.00000
     30      -9.9611      1.00000
     31      -9.9585      1.00000
     32      -9.2340      1.00000
     33      -9.2308      1.00000
     34      -8.6546      1.00000
     35      -8.4875      1.00000
     36      -8.2984      1.00000
     37      -8.2968      1.00000
     38      -8.2164      1.00000
     39      -8.2129      1.00000
     40      -7.8914      1.00000
     41      -7.8332      1.00000
     42      -7.8286      1.00000
     43      -7.4859      1.00000
     44      -5.9799      1.00000
     45      -5.8126      1.00000
     46      -5.8119      1.00000
     47      -4.8295      1.00000
     48      -4.0198      1.00000
     49      -4.0144      1.00000
     50      -3.5413      0.00000
     51      -3.5378      0.00000
     52      -1.0047      0.00000
     53      -0.9969      0.00000
     54      -0.9896      0.00000
     55      -0.6171      0.00000
     56       0.2164      0.00000
     57       0.6479      0.00000
     58       1.1574      0.00000
     59       1.6570      0.00000
     60       1.8289      0.00000
     61       1.9061      0.00000

 k-point    47 :       0.0000    0.0000    0.1579
  band No.  band energies     occupation 
      1     -31.9370      1.00000
      2     -29.7651      1.00000
      3     -29.7602      1.00000
      4     -22.0074      1.00000
      5     -20.2117      1.00000
      6     -20.2093      1.00000
      7     -19.3702      1.00000
      8     -19.3680      1.00000
      9     -19.1262      1.00000
     10     -17.7852      1.00000
     11     -16.9188      1.00000
     12     -16.9160      1.00000
     13     -16.9066      1.00000
     14     -16.9038      1.00000
     15     -16.7695      1.00000
     16     -15.5986      1.00000
     17     -13.7392      1.00000
     18     -13.7366      1.00000
     19     -13.7106      1.00000
     20     -13.5758      1.00000
     21     -13.4618      1.00000
     22     -13.4580      1.00000
     23     -12.9968      1.00000
     24     -12.2289      1.00000
     25     -11.7255      1.00000
     26     -11.7214      1.00000
     27     -10.1717      1.00000
     28     -10.1250      1.00000
     29     -10.1217      1.00000
     30      -9.9611      1.00000
     31      -9.9585      1.00000
     32      -9.2340      1.00000
     33      -9.2308      1.00000
     34      -8.6546      1.00000
     35      -8.4875      1.00000
     36      -8.2984      1.00000
     37      -8.2968      1.00000
     38      -8.2164      1.00000
     39      -8.2129      1.00000
     40      -7.8914      1.00000
     41      -7.8332      1.00000
     42      -7.8286      1.00000
     43      -7.4859      1.00000
     44      -5.9799      1.00000
     45      -5.8126      1.00000
     46      -5.8119      1.00000
     47      -4.8295      1.00000
     48      -4.0198      1.00000
     49      -4.0144      1.00000
     50      -3.5413      0.00000
     51      -3.5378      0.00000
     52      -1.0047      0.00000
     53      -0.9969      0.00000
     54      -0.9896      0.00000
     55      -0.6171      0.00000
     56       0.2168      0.00000
     57       0.6453      0.00000
     58       1.1664      0.00000
     59       1.6428      0.00000
     60       1.8226      0.00000
     61       1.8392      0.00000

 k-point    48 :       0.0000    0.0000    0.1842
  band No.  band energies     occupation 
      1     -31.9370      1.00000
      2     -29.7651      1.00000
      3     -29.7602      1.00000
      4     -22.0074      1.00000
      5     -20.2117      1.00000
      6     -20.2093      1.00000
      7     -19.3702      1.00000
      8     -19.3680      1.00000
      9     -19.1262      1.00000
     10     -17.7852      1.00000
     11     -16.9188      1.00000
     12     -16.9160      1.00000
     13     -16.9066      1.00000
     14     -16.9038      1.00000
     15     -16.7695      1.00000
     16     -15.5986      1.00000
     17     -13.7392      1.00000
     18     -13.7366      1.00000
     19     -13.7106      1.00000
     20     -13.5758      1.00000
     21     -13.4618      1.00000
     22     -13.4580      1.00000
     23     -12.9968      1.00000
     24     -12.2289      1.00000
     25     -11.7255      1.00000
     26     -11.7214      1.00000
     27     -10.1717      1.00000
     28     -10.1250      1.00000
     29     -10.1217      1.00000
     30      -9.9611      1.00000
     31      -9.9585      1.00000
     32      -9.2340      1.00000
     33      -9.2307      1.00000
     34      -8.6546      1.00000
     35      -8.4875      1.00000
     36      -8.2984      1.00000
     37      -8.2968      1.00000
     38      -8.2164      1.00000
     39      -8.2129      1.00000
     40      -7.8914      1.00000
     41      -7.8332      1.00000
     42      -7.8286      1.00000
     43      -7.4859      1.00000
     44      -5.9799      1.00000
     45      -5.8126      1.00000
     46      -5.8119      1.00000
     47      -4.8295      1.00000
     48      -4.0198      1.00000
     49      -4.0144      1.00000
     50      -3.5413      0.00000
     51      -3.5378      0.00000
     52      -1.0047      0.00000
     53      -0.9969      0.00000
     54      -0.9896      0.00000
     55      -0.6171      0.00000
     56       0.2172      0.00000
     57       0.6424      0.00000
     58       1.1769      0.00000
     59       1.6286      0.00000
     60       1.8319      0.00000
     61       1.9259      0.00000

 k-point    49 :       0.0000    0.0000    0.2105
  band No.  band energies     occupation 
      1     -31.9370      1.00000
      2     -29.7651      1.00000
      3     -29.7602      1.00000
      4     -22.0074      1.00000
      5     -20.2117      1.00000
      6     -20.2093      1.00000
      7     -19.3702      1.00000
      8     -19.3680      1.00000
      9     -19.1262      1.00000
     10     -17.7852      1.00000
     11     -16.9188      1.00000
     12     -16.9160      1.00000
     13     -16.9066      1.00000
     14     -16.9038      1.00000
     15     -16.7695      1.00000
     16     -15.5986      1.00000
     17     -13.7392      1.00000
     18     -13.7366      1.00000
     19     -13.7106      1.00000
     20     -13.5758      1.00000
     21     -13.4618      1.00000
     22     -13.4580      1.00000
     23     -12.9968      1.00000
     24     -12.2289      1.00000
     25     -11.7255      1.00000
     26     -11.7214      1.00000
     27     -10.1717      1.00000
     28     -10.1250      1.00000
     29     -10.1217      1.00000
     30      -9.9611      1.00000
     31      -9.9585      1.00000
     32      -9.2340      1.00000
     33      -9.2307      1.00000
     34      -8.6546      1.00000
     35      -8.4875      1.00000
     36      -8.2984      1.00000
     37      -8.2968      1.00000
     38      -8.2164      1.00000
     39      -8.2129      1.00000
     40      -7.8914      1.00000
     41      -7.8332      1.00000
     42      -7.8286      1.00000
     43      -7.4859      1.00000
     44      -5.9799      1.00000
     45      -5.8126      1.00000
     46      -5.8119      1.00000
     47      -4.8295      1.00000
     48      -4.0198      1.00000
     49      -4.0144      1.00000
     50      -3.5413      0.00000
     51      -3.5378      0.00000
     52      -1.0047      0.00000
     53      -0.9969      0.00000
     54      -0.9896      0.00000
     55      -0.6171      0.00000
     56       0.2177      0.00000
     57       0.6393      0.00000
     58       1.1887      0.00000
     59       1.6121      0.00000
     60       1.8235      0.00000
     61       1.8781      0.00000

 k-point    50 :       0.0000    0.0000    0.2368
  band No.  band energies     occupation 
      1     -31.9370      1.00000
      2     -29.7651      1.00000
      3     -29.7602      1.00000
      4     -22.0074      1.00000
      5     -20.2117      1.00000
      6     -20.2093      1.00000
      7     -19.3702      1.00000
      8     -19.3680      1.00000
      9     -19.1262      1.00000
     10     -17.7852      1.00000
     11     -16.9188      1.00000
     12     -16.9160      1.00000
     13     -16.9066      1.00000
     14     -16.9038      1.00000
     15     -16.7695      1.00000
     16     -15.5986      1.00000
     17     -13.7392      1.00000
     18     -13.7366      1.00000
     19     -13.7106      1.00000
     20     -13.5758      1.00000
     21     -13.4618      1.00000
     22     -13.4580      1.00000
     23     -12.9968      1.00000
     24     -12.2289      1.00000
     25     -11.7255      1.00000
     26     -11.7214      1.00000
     27     -10.1717      1.00000
     28     -10.1250      1.00000
     29     -10.1217      1.00000
     30      -9.9611      1.00000
     31      -9.9585      1.00000
     32      -9.2340      1.00000
     33      -9.2307      1.00000
     34      -8.6546      1.00000
     35      -8.4875      1.00000
     36      -8.2984      1.00000
     37      -8.2968      1.00000
     38      -8.2164      1.00000
     39      -8.2129      1.00000
     40      -7.8914      1.00000
     41      -7.8332      1.00000
     42      -7.8286      1.00000
     43      -7.4859      1.00000
     44      -5.9799      1.00000
     45      -5.8126      1.00000
     46      -5.8119      1.00000
     47      -4.8295      1.00000
     48      -4.0198      1.00000
     49      -4.0144      1.00000
     50      -3.5413      0.00000
     51      -3.5378      0.00000
     52      -1.0047      0.00000
     53      -0.9969      0.00000
     54      -0.9896      0.00000
     55      -0.6171      0.00000
     56       0.2181      0.00000
     57       0.6361      0.00000
     58       1.2017      0.00000
     59       1.5947      0.00000
     60       1.8213      0.00000
     61       1.8466      0.00000

 k-point    51 :       0.0000    0.0000    0.2632
  band No.  band energies     occupation 
      1     -31.9370      1.00000
      2     -29.7651      1.00000
      3     -29.7602      1.00000
      4     -22.0074      1.00000
      5     -20.2117      1.00000
      6     -20.2093      1.00000
      7     -19.3702      1.00000
      8     -19.3680      1.00000
      9     -19.1262      1.00000
     10     -17.7852      1.00000
     11     -16.9188      1.00000
     12     -16.9160      1.00000
     13     -16.9066      1.00000
     14     -16.9038      1.00000
     15     -16.7695      1.00000
     16     -15.5986      1.00000
     17     -13.7392      1.00000
     18     -13.7366      1.00000
     19     -13.7106      1.00000
     20     -13.5758      1.00000
     21     -13.4618      1.00000
     22     -13.4580      1.00000
     23     -12.9968      1.00000
     24     -12.2289      1.00000
     25     -11.7255      1.00000
     26     -11.7214      1.00000
     27     -10.1717      1.00000
     28     -10.1250      1.00000
     29     -10.1217      1.00000
     30      -9.9611      1.00000
     31      -9.9585      1.00000
     32      -9.2340      1.00000
     33      -9.2307      1.00000
     34      -8.6546      1.00000
     35      -8.4875      1.00000
     36      -8.2984      1.00000
     37      -8.2968      1.00000
     38      -8.2164      1.00000
     39      -8.2129      1.00000
     40      -7.8914      1.00000
     41      -7.8332      1.00000
     42      -7.8286      1.00000
     43      -7.4859      1.00000
     44      -5.9799      1.00000
     45      -5.8126      1.00000
     46      -5.8119      1.00000
     47      -4.8295      1.00000
     48      -4.0198      1.00000
     49      -4.0144      1.00000
     50      -3.5413      0.00000
     51      -3.5378      0.00000
     52      -1.0047      0.00000
     53      -0.9969      0.00000
     54      -0.9896      0.00000
     55      -0.6171      0.00000
     56       0.2187      0.00000
     57       0.6329      0.00000
     58       1.2158      0.00000
     59       1.5763      0.00000
     60       1.8240      0.00000
     61       1.8541      0.00000

 k-point    52 :       0.0000    0.0000    0.2895
  band No.  band energies     occupation 
      1     -31.9370      1.00000
      2     -29.7651      1.00000
      3     -29.7602      1.00000
      4     -22.0074      1.00000
      5     -20.2117      1.00000
      6     -20.2093      1.00000
      7     -19.3702      1.00000
      8     -19.3680      1.00000
      9     -19.1262      1.00000
     10     -17.7852      1.00000
     11     -16.9188      1.00000
     12     -16.9160      1.00000
     13     -16.9066      1.00000
     14     -16.9038      1.00000
     15     -16.7695      1.00000
     16     -15.5986      1.00000
     17     -13.7392      1.00000
     18     -13.7366      1.00000
     19     -13.7106      1.00000
     20     -13.5758      1.00000
     21     -13.4618      1.00000
     22     -13.4580      1.00000
     23     -12.9968      1.00000
     24     -12.2289      1.00000
     25     -11.7255      1.00000
     26     -11.7214      1.00000
     27     -10.1717      1.00000
     28     -10.1250      1.00000
     29     -10.1217      1.00000
     30      -9.9611      1.00000
     31      -9.9585      1.00000
     32      -9.2340      1.00000
     33      -9.2307      1.00000
     34      -8.6546      1.00000
     35      -8.4875      1.00000
     36      -8.2984      1.00000
     37      -8.2968      1.00000
     38      -8.2164      1.00000
     39      -8.2129      1.00000
     40      -7.8914      1.00000
     41      -7.8332      1.00000
     42      -7.8286      1.00000
     43      -7.4859      1.00000
     44      -5.9799      1.00000
     45      -5.8126      1.00000
     46      -5.8119      1.00000
     47      -4.8295      1.00000
     48      -4.0198      1.00000
     49      -4.0144      1.00000
     50      -3.5413      0.00000
     51      -3.5378      0.00000
     52      -1.0047      0.00000
     53      -0.9969      0.00000
     54      -0.9896      0.00000
     55      -0.6171      0.00000
     56       0.2192      0.00000
     57       0.6299      0.00000
     58       1.2308      0.00000
     59       1.5572      0.00000
     60       1.8219      0.00000
     61       1.9707      0.00000

 k-point    53 :       0.0000    0.0000    0.3158
  band No.  band energies     occupation 
      1     -31.9370      1.00000
      2     -29.7651      1.00000
      3     -29.7602      1.00000
      4     -22.0074      1.00000
      5     -20.2117      1.00000
      6     -20.2093      1.00000
      7     -19.3702      1.00000
      8     -19.3680      1.00000
      9     -19.1262      1.00000
     10     -17.7852      1.00000
     11     -16.9188      1.00000
     12     -16.9160      1.00000
     13     -16.9066      1.00000
     14     -16.9038      1.00000
     15     -16.7695      1.00000
     16     -15.5986      1.00000
     17     -13.7392      1.00000
     18     -13.7366      1.00000
     19     -13.7106      1.00000
     20     -13.5758      1.00000
     21     -13.4618      1.00000
     22     -13.4580      1.00000
     23     -12.9968      1.00000
     24     -12.2289      1.00000
     25     -11.7255      1.00000
     26     -11.7214      1.00000
     27     -10.1717      1.00000
     28     -10.1250      1.00000
     29     -10.1217      1.00000
     30      -9.9611      1.00000
     31      -9.9585      1.00000
     32      -9.2340      1.00000
     33      -9.2307      1.00000
     34      -8.6546      1.00000
     35      -8.4875      1.00000
     36      -8.2984      1.00000
     37      -8.2968      1.00000
     38      -8.2164      1.00000
     39      -8.2129      1.00000
     40      -7.8914      1.00000
     41      -7.8332      1.00000
     42      -7.8286      1.00000
     43      -7.4859      1.00000
     44      -5.9799      1.00000
     45      -5.8126      1.00000
     46      -5.8119      1.00000
     47      -4.8295      1.00000
     48      -4.0198      1.00000
     49      -4.0144      1.00000
     50      -3.5413      0.00000
     51      -3.5378      0.00000
     52      -1.0047      0.00000
     53      -0.9969      0.00000
     54      -0.9896      0.00000
     55      -0.6171      0.00000
     56       0.2196      0.00000
     57       0.6270      0.00000
     58       1.2467      0.00000
     59       1.5375      0.00000
     60       1.8237      0.00000
     61       1.8594      0.00000

 k-point    54 :       0.0000    0.0000    0.3421
  band No.  band energies     occupation 
      1     -31.9370      1.00000
      2     -29.7651      1.00000
      3     -29.7602      1.00000
      4     -22.0074      1.00000
      5     -20.2117      1.00000
      6     -20.2093      1.00000
      7     -19.3702      1.00000
      8     -19.3680      1.00000
      9     -19.1262      1.00000
     10     -17.7852      1.00000
     11     -16.9188      1.00000
     12     -16.9160      1.00000
     13     -16.9066      1.00000
     14     -16.9038      1.00000
     15     -16.7695      1.00000
     16     -15.5986      1.00000
     17     -13.7392      1.00000
     18     -13.7366      1.00000
     19     -13.7106      1.00000
     20     -13.5758      1.00000
     21     -13.4618      1.00000
     22     -13.4580      1.00000
     23     -12.9968      1.00000
     24     -12.2289      1.00000
     25     -11.7255      1.00000
     26     -11.7214      1.00000
     27     -10.1717      1.00000
     28     -10.1250      1.00000
     29     -10.1217      1.00000
     30      -9.9611      1.00000
     31      -9.9585      1.00000
     32      -9.2340      1.00000
     33      -9.2307      1.00000
     34      -8.6546      1.00000
     35      -8.4875      1.00000
     36      -8.2984      1.00000
     37      -8.2968      1.00000
     38      -8.2164      1.00000
     39      -8.2129      1.00000
     40      -7.8914      1.00000
     41      -7.8332      1.00000
     42      -7.8286      1.00000
     43      -7.4859      1.00000
     44      -5.9799      1.00000
     45      -5.8126      1.00000
     46      -5.8119      1.00000
     47      -4.8295      1.00000
     48      -4.0198      1.00000
     49      -4.0144      1.00000
     50      -3.5413      0.00000
     51      -3.5378      0.00000
     52      -1.0047      0.00000
     53      -0.9969      0.00000
     54      -0.9896      0.00000
     55      -0.6171      0.00000
     56       0.2201      0.00000
     57       0.6243      0.00000
     58       1.2633      0.00000
     59       1.5175      0.00000
     60       1.8284      0.00000
     61       1.8813      0.00000

 k-point    55 :       0.0000    0.0000    0.3684
  band No.  band energies     occupation 
      1     -31.9370      1.00000
      2     -29.7651      1.00000
      3     -29.7602      1.00000
      4     -22.0074      1.00000
      5     -20.2117      1.00000
      6     -20.2093      1.00000
      7     -19.3702      1.00000
      8     -19.3680      1.00000
      9     -19.1262      1.00000
     10     -17.7852      1.00000
     11     -16.9188      1.00000
     12     -16.9160      1.00000
     13     -16.9066      1.00000
     14     -16.9038      1.00000
     15     -16.7695      1.00000
     16     -15.5986      1.00000
     17     -13.7392      1.00000
     18     -13.7366      1.00000
     19     -13.7106      1.00000
     20     -13.5758      1.00000
     21     -13.4618      1.00000
     22     -13.4580      1.00000
     23     -12.9968      1.00000
     24     -12.2289      1.00000
     25     -11.7255      1.00000
     26     -11.7214      1.00000
     27     -10.1717      1.00000
     28     -10.1250      1.00000
     29     -10.1217      1.00000
     30      -9.9611      1.00000
     31      -9.9585      1.00000
     32      -9.2340      1.00000
     33      -9.2307      1.00000
     34      -8.6546      1.00000
     35      -8.4875      1.00000
     36      -8.2984      1.00000
     37      -8.2968      1.00000
     38      -8.2164      1.00000
     39      -8.2129      1.00000
     40      -7.8914      1.00000
     41      -7.8332      1.00000
     42      -7.8286      1.00000
     43      -7.4859      1.00000
     44      -5.9799      1.00000
     45      -5.8126      1.00000
     46      -5.8119      1.00000
     47      -4.8295      1.00000
     48      -4.0198      1.00000
     49      -4.0144      1.00000
     50      -3.5413      0.00000
     51      -3.5378      0.00000
     52      -1.0047      0.00000
     53      -0.9969      0.00000
     54      -0.9896      0.00000
     55      -0.6171      0.00000
     56       0.2205      0.00000
     57       0.6220      0.00000
     58       1.2804      0.00000
     59       1.4974      0.00000
     60       1.8338      0.00000
     61       1.9459      0.00000

 k-point    56 :       0.0000    0.0000    0.3947
  band No.  band energies     occupation 
      1     -31.9370      1.00000
      2     -29.7651      1.00000
      3     -29.7602      1.00000
      4     -22.0074      1.00000
      5     -20.2117      1.00000
      6     -20.2093      1.00000
      7     -19.3702      1.00000
      8     -19.3680      1.00000
      9     -19.1262      1.00000
     10     -17.7852      1.00000
     11     -16.9188      1.00000
     12     -16.9160      1.00000
     13     -16.9066      1.00000
     14     -16.9038      1.00000
     15     -16.7695      1.00000
     16     -15.5986      1.00000
     17     -13.7392      1.00000
     18     -13.7366      1.00000
     19     -13.7106      1.00000
     20     -13.5758      1.00000
     21     -13.4618      1.00000
     22     -13.4580      1.00000
     23     -12.9968      1.00000
     24     -12.2289      1.00000
     25     -11.7255      1.00000
     26     -11.7214      1.00000
     27     -10.1717      1.00000
     28     -10.1250      1.00000
     29     -10.1217      1.00000
     30      -9.9611      1.00000
     31      -9.9585      1.00000
     32      -9.2340      1.00000
     33      -9.2307      1.00000
     34      -8.6546      1.00000
     35      -8.4875      1.00000
     36      -8.2984      1.00000
     37      -8.2968      1.00000
     38      -8.2164      1.00000
     39      -8.2129      1.00000
     40      -7.8914      1.00000
     41      -7.8332      1.00000
     42      -7.8286      1.00000
     43      -7.4859      1.00000
     44      -5.9799      1.00000
     45      -5.8126      1.00000
     46      -5.8119      1.00000
     47      -4.8295      1.00000
     48      -4.0198      1.00000
     49      -4.0144      1.00000
     50      -3.5413      0.00000
     51      -3.5378      0.00000
     52      -1.0047      0.00000
     53      -0.9969      0.00000
     54      -0.9896      0.00000
     55      -0.6171      0.00000
     56       0.2208      0.00000
     57       0.6200      0.00000
     58       1.2979      0.00000
     59       1.4774      0.00000
     60       1.8227      0.00000
     61       1.8377      0.00000

 k-point    57 :       0.0000    0.0000    0.4211
  band No.  band energies     occupation 
      1     -31.9370      1.00000
      2     -29.7651      1.00000
      3     -29.7602      1.00000
      4     -22.0074      1.00000
      5     -20.2117      1.00000
      6     -20.2093      1.00000
      7     -19.3702      1.00000
      8     -19.3680      1.00000
      9     -19.1262      1.00000
     10     -17.7852      1.00000
     11     -16.9188      1.00000
     12     -16.9160      1.00000
     13     -16.9066      1.00000
     14     -16.9038      1.00000
     15     -16.7695      1.00000
     16     -15.5986      1.00000
     17     -13.7392      1.00000
     18     -13.7366      1.00000
     19     -13.7106      1.00000
     20     -13.5758      1.00000
     21     -13.4618      1.00000
     22     -13.4580      1.00000
     23     -12.9968      1.00000
     24     -12.2289      1.00000
     25     -11.7255      1.00000
     26     -11.7214      1.00000
     27     -10.1717      1.00000
     28     -10.1250      1.00000
     29     -10.1217      1.00000
     30      -9.9611      1.00000
     31      -9.9585      1.00000
     32      -9.2340      1.00000
     33      -9.2307      1.00000
     34      -8.6546      1.00000
     35      -8.4875      1.00000
     36      -8.2984      1.00000
     37      -8.2968      1.00000
     38      -8.2164      1.00000
     39      -8.2129      1.00000
     40      -7.8914      1.00000
     41      -7.8332      1.00000
     42      -7.8286      1.00000
     43      -7.4859      1.00000
     44      -5.9799      1.00000
     45      -5.8126      1.00000
     46      -5.8119      1.00000
     47      -4.8295      1.00000
     48      -4.0198      1.00000
     49      -4.0144      1.00000
     50      -3.5413      0.00000
     51      -3.5378      0.00000
     52      -1.0047      0.00000
     53      -0.9969      0.00000
     54      -0.9896      0.00000
     55      -0.6171      0.00000
     56       0.2211      0.00000
     57       0.6184      0.00000
     58       1.3152      0.00000
     59       1.4581      0.00000
     60       1.8266      0.00000
     61       1.8769      0.00000

 k-point    58 :       0.0000    0.0000    0.4474
  band No.  band energies     occupation 
      1     -31.9370      1.00000
      2     -29.7651      1.00000
      3     -29.7602      1.00000
      4     -22.0074      1.00000
      5     -20.2117      1.00000
      6     -20.2093      1.00000
      7     -19.3702      1.00000
      8     -19.3680      1.00000
      9     -19.1262      1.00000
     10     -17.7852      1.00000
     11     -16.9188      1.00000
     12     -16.9160      1.00000
     13     -16.9066      1.00000
     14     -16.9038      1.00000
     15     -16.7695      1.00000
     16     -15.5986      1.00000
     17     -13.7392      1.00000
     18     -13.7366      1.00000
     19     -13.7106      1.00000
     20     -13.5758      1.00000
     21     -13.4618      1.00000
     22     -13.4580      1.00000
     23     -12.9968      1.00000
     24     -12.2289      1.00000
     25     -11.7255      1.00000
     26     -11.7214      1.00000
     27     -10.1717      1.00000
     28     -10.1250      1.00000
     29     -10.1217      1.00000
     30      -9.9611      1.00000
     31      -9.9585      1.00000
     32      -9.2340      1.00000
     33      -9.2307      1.00000
     34      -8.6546      1.00000
     35      -8.4875      1.00000
     36      -8.2984      1.00000
     37      -8.2968      1.00000
     38      -8.2164      1.00000
     39      -8.2129      1.00000
     40      -7.8914      1.00000
     41      -7.8332      1.00000
     42      -7.8286      1.00000
     43      -7.4859      1.00000
     44      -5.9799      1.00000
     45      -5.8126      1.00000
     46      -5.8119      1.00000
     47      -4.8295      1.00000
     48      -4.0198      1.00000
     49      -4.0144      1.00000
     50      -3.5413      0.00000
     51      -3.5378      0.00000
     52      -1.0047      0.00000
     53      -0.9969      0.00000
     54      -0.9896      0.00000
     55      -0.6171      0.00000
     56       0.2213      0.00000
     57       0.6172      0.00000
     58       1.3315      0.00000
     59       1.4404      0.00000
     60       1.8257      0.00000
     61       1.8443      0.00000

 k-point    59 :       0.0000    0.0000    0.4737
  band No.  band energies     occupation 
      1     -31.9370      1.00000
      2     -29.7651      1.00000
      3     -29.7602      1.00000
      4     -22.0074      1.00000
      5     -20.2117      1.00000
      6     -20.2093      1.00000
      7     -19.3702      1.00000
      8     -19.3680      1.00000
      9     -19.1262      1.00000
     10     -17.7852      1.00000
     11     -16.9188      1.00000
     12     -16.9160      1.00000
     13     -16.9066      1.00000
     14     -16.9038      1.00000
     15     -16.7695      1.00000
     16     -15.5986      1.00000
     17     -13.7392      1.00000
     18     -13.7366      1.00000
     19     -13.7106      1.00000
     20     -13.5758      1.00000
     21     -13.4618      1.00000
     22     -13.4580      1.00000
     23     -12.9968      1.00000
     24     -12.2289      1.00000
     25     -11.7255      1.00000
     26     -11.7214      1.00000
     27     -10.1717      1.00000
     28     -10.1250      1.00000
     29     -10.1217      1.00000
     30      -9.9611      1.00000
     31      -9.9585      1.00000
     32      -9.2340      1.00000
     33      -9.2307      1.00000
     34      -8.6546      1.00000
     35      -8.4875      1.00000
     36      -8.2984      1.00000
     37      -8.2968      1.00000
     38      -8.2164      1.00000
     39      -8.2129      1.00000
     40      -7.8914      1.00000
     41      -7.8332      1.00000
     42      -7.8286      1.00000
     43      -7.4859      1.00000
     44      -5.9799      1.00000
     45      -5.8126      1.00000
     46      -5.8119      1.00000
     47      -4.8295      1.00000
     48      -4.0198      1.00000
     49      -4.0144      1.00000
     50      -3.5413      0.00000
     51      -3.5378      0.00000
     52      -1.0047      0.00000
     53      -0.9969      0.00000
     54      -0.9896      0.00000
     55      -0.6171      0.00000
     56       0.2215      0.00000
     57       0.6165      0.00000
     58       1.3447      0.00000
     59       1.4263      0.00000
     60       1.8228      0.00000
     61       1.8381      0.00000

 k-point    60 :       0.0000    0.0000    0.5000
  band No.  band energies     occupation 
      1     -31.9370      1.00000
      2     -29.7651      1.00000
      3     -29.7602      1.00000
      4     -22.0074      1.00000
      5     -20.2117      1.00000
      6     -20.2093      1.00000
      7     -19.3702      1.00000
      8     -19.3680      1.00000
      9     -19.1262      1.00000
     10     -17.7852      1.00000
     11     -16.9188      1.00000
     12     -16.9160      1.00000
     13     -16.9066      1.00000
     14     -16.9038      1.00000
     15     -16.7695      1.00000
     16     -15.5986      1.00000
     17     -13.7392      1.00000
     18     -13.7366      1.00000
     19     -13.7106      1.00000
     20     -13.5758      1.00000
     21     -13.4618      1.00000
     22     -13.4580      1.00000
     23     -12.9968      1.00000
     24     -12.2289      1.00000
     25     -11.7255      1.00000
     26     -11.7214      1.00000
     27     -10.1717      1.00000
     28     -10.1250      1.00000
     29     -10.1217      1.00000
     30      -9.9611      1.00000
     31      -9.9585      1.00000
     32      -9.2340      1.00000
     33      -9.2307      1.00000
     34      -8.6546      1.00000
     35      -8.4875      1.00000
     36      -8.2984      1.00000
     37      -8.2968      1.00000
     38      -8.2164      1.00000
     39      -8.2129      1.00000
     40      -7.8914      1.00000
     41      -7.8332      1.00000
     42      -7.8286      1.00000
     43      -7.4859      1.00000
     44      -5.9799      1.00000
     45      -5.8126      1.00000
     46      -5.8119      1.00000
     47      -4.8295      1.00000
     48      -4.0198      1.00000
     49      -4.0144      1.00000
     50      -3.5413      0.00000
     51      -3.5378      0.00000
     52      -1.0047      0.00000
     53      -0.9969      0.00000
     54      -0.9896      0.00000
     55      -0.6171      0.00000
     56       0.2215      0.00000
     57       0.6163      0.00000
     58       1.3503      0.00000
     59       1.4204      0.00000
     60       1.8203      0.00000
     61       1.8479      0.00000

 k-point    61 :       0.5000    0.5000    0.5000
  band No.  band energies     occupation 
      1     -31.9370      1.00000
      2     -29.7652      1.00000
      3     -29.7603      1.00000
      4     -21.9948      1.00000
      5     -20.3703      1.00000
      6     -20.2725      1.00000
      7     -19.3036      1.00000
      8     -19.0407      1.00000
      9     -18.6223      1.00000
     10     -18.3729      1.00000
     11     -17.9727      1.00000
     12     -17.2067      1.00000
     13     -16.7699      1.00000
     14     -16.5694      1.00000
     15     -15.6176      1.00000
     16     -15.1050      1.00000
     17     -14.5824      1.00000
     18     -14.3647      1.00000
     19     -13.7106      1.00000
     20     -13.4620      1.00000
     21     -13.4586      1.00000
     22     -13.3626      1.00000
     23     -12.9044      1.00000
     24     -12.1978      1.00000
     25     -11.5845      1.00000
     26     -11.3997      1.00000
     27     -10.1564      1.00000
     28     -10.1348      1.00000
     29     -10.0967      1.00000
     30     -10.0716      1.00000
     31     -10.0408      1.00000
     32      -9.2347      1.00000
     33      -9.2309      1.00000
     34      -8.9316      1.00000
     35      -8.6660      1.00000
     36      -8.6358      1.00000
     37      -8.4677      1.00000
     38      -8.0240      1.00000
     39      -7.9419      1.00000
     40      -7.8423      1.00000
     41      -7.7395      1.00000
     42      -7.5413      1.00000
     43      -6.4750      1.00000
     44      -6.4500      1.00000
     45      -5.5571      1.00000
     46      -5.5057      1.00000
     47      -5.4960      1.00000
     48      -5.4112      1.00000
     49      -4.6454      1.00000
     50      -2.8372      0.00000
     51      -1.5570      0.00000
     52      -1.4301      0.00000
     53      -1.0347      0.00000
     54      -0.9934      0.00000
     55      -0.5792      0.00000
     56       0.2905      0.00000
     57       0.6887      0.00000
     58       0.7472      0.00000
     59       1.0801      0.00000
     60       1.2860      0.00000
     61       1.6087      0.00000

 k-point    62 :       0.4737    0.4737    0.4737
  band No.  band energies     occupation 
      1     -31.9370      1.00000
      2     -29.7652      1.00000
      3     -29.7603      1.00000
      4     -21.9948      1.00000
      5     -20.3694      1.00000
      6     -20.2753      1.00000
      7     -19.2966      1.00000
      8     -19.0407      1.00000
      9     -18.6409      1.00000
     10     -18.3526      1.00000
     11     -17.9694      1.00000
     12     -17.2450      1.00000
     13     -16.7699      1.00000
     14     -16.5281      1.00000
     15     -15.6246      1.00000
     16     -15.1272      1.00000
     17     -14.5591      1.00000
     18     -14.3590      1.00000
     19     -13.7106      1.00000
     20     -13.4620      1.00000
     21     -13.4587      1.00000
     22     -13.3970      1.00000
     23     -12.8829      1.00000
     24     -12.1976      1.00000
     25     -11.5812      1.00000
     26     -11.4019      1.00000
     27     -10.1562      1.00000
     28     -10.1351      1.00000
     29     -10.0972      1.00000
     30     -10.0717      1.00000
     31     -10.0408      1.00000
     32      -9.2347      1.00000
     33      -9.2309      1.00000
     34      -8.9297      1.00000
     35      -8.6714      1.00000
     36      -8.6424      1.00000
     37      -8.4648      1.00000
     38      -8.0179      1.00000
     39      -7.9418      1.00000
     40      -7.8469      1.00000
     41      -7.7345      1.00000
     42      -7.5318      1.00000
     43      -6.5815      1.00000
     44      -6.3411      1.00000
     45      -5.5542      1.00000
     46      -5.5259      1.00000
     47      -5.4723      1.00000
     48      -5.4140      1.00000
     49      -4.6797      1.00000
     50      -2.7964      0.00000
     51      -1.5532      0.00000
     52      -1.4398      0.00000
     53      -1.0596      0.00000
     54      -1.0262      0.00000
     55      -0.5483      0.00000
     56       0.3157      0.00000
     57       0.6921      0.00000
     58       0.7509      0.00000
     59       1.0823      0.00000
     60       1.2907      0.00000
     61       1.5538      0.00000

 k-point    63 :       0.4474    0.4474    0.4474
  band No.  band energies     occupation 
      1     -31.9370      1.00000
      2     -29.7652      1.00000
      3     -29.7603      1.00000
      4     -21.9945      1.00000
      5     -20.3669      1.00000
      6     -20.2832      1.00000
      7     -19.2768      1.00000
      8     -19.0402      1.00000
      9     -18.6852      1.00000
     10     -18.3034      1.00000
     11     -17.9602      1.00000
     12     -17.3383      1.00000
     13     -16.7699      1.00000
     14     -16.4253      1.00000
     15     -15.6455      1.00000
     16     -15.1846      1.00000
     17     -14.4987      1.00000
     18     -14.3421      1.00000
     19     -13.7106      1.00000
     20     -13.4862      1.00000
     21     -13.4616      1.00000
     22     -13.4578      1.00000
     23     -12.8342      1.00000
     24     -12.1970      1.00000
     25     -11.5714      1.00000
     26     -11.4082      1.00000
     27     -10.1556      1.00000
     28     -10.1358      1.00000
     29     -10.0985      1.00000
     30     -10.0723      1.00000
     31     -10.0403      1.00000
     32      -9.2347      1.00000
     33      -9.2309      1.00000
     34      -8.9241      1.00000
     35      -8.6948      1.00000
     36      -8.6500      1.00000
     37      -8.4587      1.00000
     38      -8.0023      1.00000
     39      -7.9415      1.00000
     40      -7.8578      1.00000
     41      -7.7225      1.00000
     42      -7.5028      1.00000
     43      -6.6971      1.00000
     44      -6.2183      1.00000
     45      -5.5483      1.00000
     46      -5.5418      1.00000
     47      -5.4441      1.00000
     48      -5.4221      1.00000
     49      -4.7733      1.00000
     50      -2.6823      0.00000
     51      -1.5421      0.00000
     52      -1.4685      0.00000
     53      -1.1293      0.00000
     54      -1.1017      0.00000
     55      -0.4786      0.00000
     56       0.3841      0.00000
     57       0.7019      0.00000
     58       0.7619      0.00000
     59       1.0876      0.00000
     60       1.3031      0.00000
     61       1.4637      0.00000

 k-point    64 :       0.4211    0.4211    0.4211
  band No.  band energies     occupation 
      1     -31.9370      1.00000
      2     -29.7652      1.00000
      3     -29.7603      1.00000
      4     -21.9942      1.00000
      5     -20.3627      1.00000
      6     -20.2947      1.00000
      7     -19.2480      1.00000
      8     -19.0366      1.00000
      9     -18.7401      1.00000
     10     -18.2403      1.00000
     11     -17.9465      1.00000
     12     -17.4548      1.00000
     13     -16.7699      1.00000
     14     -16.2924      1.00000
     15     -15.6788      1.00000
     16     -15.2609      1.00000
     17     -14.4170      1.00000
     18     -14.3154      1.00000
     19     -13.7107      1.00000
     20     -13.6028      1.00000
     21     -13.4618      1.00000
     22     -13.4583      1.00000
     23     -12.7814      1.00000
     24     -12.1962      1.00000
     25     -11.5556      1.00000
     26     -11.4186      1.00000
     27     -10.1549      1.00000
     28     -10.1368      1.00000
     29     -10.1003      1.00000
     30     -10.0739      1.00000
     31     -10.0391      1.00000
     32      -9.2347      1.00000
     33      -9.2309      1.00000
     34      -8.9150      1.00000
     35      -8.7329      1.00000
     36      -8.6525      1.00000
     37      -8.4529      1.00000
     38      -7.9836      1.00000
     39      -7.9410      1.00000
     40      -7.8706      1.00000
     41      -7.7084      1.00000
     42      -7.4536      1.00000
     43      -6.8104      1.00000
     44      -6.0931      1.00000
     45      -5.5558      1.00000
     46      -5.5330      1.00000
     47      -5.4370      1.00000
     48      -5.4164      1.00000
     49      -4.9058      1.00000
     50      -2.5135      0.00000
     51      -1.5244      0.00000
     52      -1.5148      0.00000
     53      -1.2324      0.00000
     54      -1.1899      0.00000
     55      -0.4014      0.00000
     56       0.4879      0.00000
     57       0.7180      0.00000
     58       0.7813      0.00000
     59       1.0911      0.00000
     60       1.3248      0.00000
     61       1.3816      0.00000

 k-point    65 :       0.3947    0.3947    0.3947
  band No.  band energies     occupation 
      1     -31.9370      1.00000
      2     -29.7652      1.00000
      3     -29.7603      1.00000
      4     -21.9938      1.00000
      5     -20.3569      1.00000
      6     -20.3083      1.00000
      7     -19.2172      1.00000
      8     -19.0249      1.00000
      9     -18.7985      1.00000
     10     -18.1703      1.00000
     11     -17.9323      1.00000
     12     -17.5739      1.00000
     13     -16.7699      1.00000
     14     -16.1480      1.00000
     15     -15.7232      1.00000
     16     -15.3436      1.00000
     17     -14.3254      1.00000
     18     -14.2804      1.00000
     19     -13.7356      1.00000
     20     -13.7103      1.00000
     21     -13.4619      1.00000
     22     -13.4583      1.00000
     23     -12.7372      1.00000
     24     -12.1952      1.00000
     25     -11.5348      1.00000
     26     -11.4327      1.00000
     27     -10.1539      1.00000
     28     -10.1380      1.00000
     29     -10.1023      1.00000
     30     -10.0766      1.00000
     31     -10.0371      1.00000
     32      -9.2346      1.00000
     33      -9.2309      1.00000
     34      -8.9025      1.00000
     35      -8.7742      1.00000
     36      -8.6534      1.00000
     37      -8.4488      1.00000
     38      -7.9676      1.00000
     39      -7.9404      1.00000
     40      -7.8822      1.00000
     41      -7.6957      1.00000
     42      -7.3850      1.00000
     43      -6.9212      1.00000
     44      -5.9656      1.00000
     45      -5.5562      1.00000
     46      -5.5246      1.00000
     47      -5.4553      1.00000
     48      -5.3951      1.00000
     49      -5.0531      1.00000
     50      -2.3077      0.00000
     51      -1.5787      0.00000
     52      -1.4987      0.00000
     53      -1.3582      0.00000
     54      -1.2746      0.00000
     55      -0.3341      0.00000
     56       0.6256      0.00000
     57       0.7395      0.00000
     58       0.8025      0.00000
     59       1.0811      0.00000
     60       1.3205      0.00000
     61       1.3575      0.00000

 k-point    66 :       0.3684    0.3684    0.3684
  band No.  band energies     occupation 
      1     -31.9370      1.00000
      2     -29.7652      1.00000
      3     -29.7603      1.00000
      4     -21.9934      1.00000
      5     -20.3496      1.00000
      6     -20.3219      1.00000
      7     -19.1941      1.00000
      8     -18.9977      1.00000
      9     -18.8575      1.00000
     10     -18.0962      1.00000
     11     -17.9302      1.00000
     12     -17.6756      1.00000
     13     -16.7699      1.00000
     14     -16.0052      1.00000
     15     -15.7768      1.00000
     16     -15.4220      1.00000
     17     -14.2395      1.00000
     18     -14.2330      1.00000
     19     -13.8721      1.00000
     20     -13.7106      1.00000
     21     -13.4619      1.00000
     22     -13.4583      1.00000
     23     -12.7074      1.00000
     24     -12.1944      1.00000
     25     -11.5108      1.00000
     26     -11.4502      1.00000
     27     -10.1530      1.00000
     28     -10.1392      1.00000
     29     -10.1039      1.00000
     30     -10.0796      1.00000
     31     -10.0348      1.00000
     32      -9.2346      1.00000
     33      -9.2309      1.00000
     34      -8.8877      1.00000
     35      -8.8110      1.00000
     36      -8.6538      1.00000
     37      -8.4463      1.00000
     38      -7.9571      1.00000
     39      -7.9397      1.00000
     40      -7.8908      1.00000
     41      -7.6865      1.00000
     42      -7.2997      1.00000
     43      -7.0295      1.00000
     44      -5.8359      1.00000
     45      -5.5467      1.00000
     46      -5.5386      1.00000
     47      -5.4781      1.00000
     48      -5.3804      1.00000
     49      -5.1824      1.00000
     50      -2.0789      0.00000
     51      -1.6551      0.00000
     52      -1.4988      0.00000
     53      -1.4678      0.00000
     54      -1.3474      0.00000
     55      -0.2875      0.00000
     56       0.7620      0.00000
     57       0.7850      0.00000
     58       0.8254      0.00000
     59       1.0491      0.00000
     60       1.3025      0.00000
     61       1.3968      0.00000

 k-point    67 :       0.3421    0.3421    0.3421
  band No.  band energies     occupation 
      1     -31.9370      1.00000
      2     -29.7652      1.00000
      3     -29.7603      1.00000
      4     -21.9933      1.00000
      5     -20.3410      1.00000
      6     -20.3339      1.00000
      7     -19.1843      1.00000
      8     -18.9522      1.00000
      9     -18.9157      1.00000
     10     -18.0195      1.00000
     11     -17.9681      1.00000
     12     -17.7272      1.00000
     13     -16.7700      1.00000
     14     -15.8859      1.00000
     15     -15.8379      1.00000
     16     -15.4755      1.00000
     17     -14.1935      1.00000
     18     -14.1708      1.00000
     19     -13.9817      1.00000
     20     -13.7106      1.00000
     21     -13.4620      1.00000
     22     -13.4583      1.00000
     23     -12.6937      1.00000
     24     -12.1940      1.00000
     25     -11.4865      1.00000
     26     -11.4705      1.00000
     27     -10.1523      1.00000
     28     -10.1402      1.00000
     29     -10.1044      1.00000
     30     -10.0820      1.00000
     31     -10.0331      1.00000
     32      -9.2346      1.00000
     33      -9.2309      1.00000
     34      -8.8762      1.00000
     35      -8.8338      1.00000
     36      -8.6540      1.00000
     37      -8.4450      1.00000
     38      -7.9528      1.00000
     39      -7.9392      1.00000
     40      -7.8953      1.00000
     41      -7.6821      1.00000
     42      -7.2024      1.00000
     43      -7.1352      1.00000
     44      -5.7041      1.00000
     45      -5.6169      1.00000
     46      -5.5253      1.00000
     47      -5.5033      1.00000
     48      -5.3740      1.00000
     49      -5.2462      1.00000
     50      -1.8555      0.00000
     51      -1.7230      0.00000
     52      -1.6486      0.00000
     53      -1.4318      0.00000
     54      -1.4032      0.00000
     55      -0.2639      0.00000
     56       0.7820      0.00000
     57       0.8457      0.00000
     58       0.9107      0.00000
     59       1.0168      0.00000
     60       1.3056      0.00000
     61       1.4248      0.00000

 k-point    68 :       0.3158    0.3158    0.3158
  band No.  band energies     occupation 
      1     -31.9369      1.00000
      2     -29.7652      1.00000
      3     -29.7603      1.00000
      4     -21.9933      1.00000
      5     -20.3434      1.00000
      6     -20.3307      1.00000
      7     -19.1858      1.00000
      8     -18.9724      1.00000
      9     -18.8940      1.00000
     10     -18.0498      1.00000
     11     -17.9406      1.00000
     12     -17.7212      1.00000
     13     -16.7700      1.00000
     14     -15.9053      1.00000
     15     -15.8366      1.00000
     16     -15.4583      1.00000
     17     -14.2393      1.00000
     18     -14.1447      1.00000
     19     -13.9618      1.00000
     20     -13.7106      1.00000
     21     -13.4620      1.00000
     22     -13.4583      1.00000
     23     -12.6964      1.00000
     24     -12.1941      1.00000
     25     -11.4937      1.00000
     26     -11.4645      1.00000
     27     -10.1520      1.00000
     28     -10.1404      1.00000
     29     -10.1033      1.00000
     30     -10.0830      1.00000
     31     -10.0329      1.00000
     32      -9.2345      1.00000
     33      -9.2309      1.00000
     34      -8.8807      1.00000
     35      -8.8268      1.00000
     36      -8.6541      1.00000
     37      -8.4446      1.00000
     38      -7.9536      1.00000
     39      -7.9389      1.00000
     40      -7.8955      1.00000
     41      -7.6829      1.00000
     42      -7.2383      1.00000
     43      -7.0984      1.00000
     44      -5.7555      1.00000
     45      -5.5706      1.00000
     46      -5.5360      1.00000
     47      -5.4918      1.00000
     48      -5.3749      1.00000
     49      -5.2387      1.00000
     50      -1.8737      0.00000
     51      -1.8046      0.00000
     52      -1.5500      0.00000
     53      -1.4401      0.00000
     54      -1.3909      0.00000
     55      -0.2693      0.00000
     56       0.7625      0.00000
     57       0.8559      0.00000
     58       1.0092      0.00000
     59       1.0505      0.00000
     60       1.3090      0.00000
     61       1.4499      0.00000

 k-point    69 :       0.2895    0.2895    0.2895
  band No.  band energies     occupation 
      1     -31.9370      1.00000
      2     -29.7652      1.00000
      3     -29.7603      1.00000
      4     -21.9937      1.00000
      5     -20.3486      1.00000
      6     -20.3195      1.00000
      7     -19.1941      1.00000
      8     -19.0270      1.00000
      9     -18.8340      1.00000
     10     -18.1406      1.00000
     11     -17.8601      1.00000
     12     -17.6865      1.00000
     13     -16.7700      1.00000
     14     -15.9775      1.00000
     15     -15.8734      1.00000
     16     -15.3556      1.00000
     17     -14.3787      1.00000
     18     -14.0945      1.00000
     19     -13.8706      1.00000
     20     -13.7106      1.00000
     21     -13.4620      1.00000
     22     -13.4582      1.00000
     23     -12.7143      1.00000
     24     -12.1950      1.00000
     25     -11.5183      1.00000
     26     -11.4490      1.00000
     27     -10.1523      1.00000
     28     -10.1393      1.00000
     29     -10.1002      1.00000
     30     -10.0818      1.00000
     31     -10.0345      1.00000
     32      -9.2345      1.00000
     33      -9.2309      1.00000
     34      -8.8868      1.00000
     35      -8.8026      1.00000
     36      -8.6541      1.00000
     37      -8.4447      1.00000
     38      -7.9588      1.00000
     39      -7.9377      1.00000
     40      -7.8923      1.00000
     41      -7.6888      1.00000
     42      -7.3386      1.00000
     43      -6.9947      1.00000
     44      -5.9152      1.00000
     45      -5.5679      1.00000
     46      -5.4641      1.00000
     47      -5.4339      1.00000
     48      -5.3740      1.00000
     49      -5.1940      1.00000
     50      -1.9849      0.00000
     51      -1.9641      0.00000
     52      -1.4559      0.00000
     53      -1.3477      0.00000
     54      -1.2869      0.00000
     55      -0.2991      0.00000
     56       0.7004      0.00000
     57       0.7277      0.00000
     58       0.8776      0.00000
     59       1.0623      0.00000
     60       1.2696      0.00000
     61       1.4712      0.00000

 k-point    70 :       0.2632    0.2632    0.2632
  band No.  band energies     occupation 
      1     -31.9370      1.00000
      2     -29.7652      1.00000
      3     -29.7603      1.00000
      4     -21.9944      1.00000
      5     -20.3493      1.00000
      6     -20.3074      1.00000
      7     -19.2062      1.00000
      8     -19.0791      1.00000
      9     -18.7856      1.00000
     10     -18.2146      1.00000
     11     -17.7782      1.00000
     12     -17.6388      1.00000
     13     -16.7700      1.00000
     14     -16.0537      1.00000
     15     -15.9505      1.00000
     16     -15.2156      1.00000
     17     -14.5261      1.00000
     18     -14.0443      1.00000
     19     -13.7685      1.00000
     20     -13.7104      1.00000
     21     -13.4620      1.00000
     22     -13.4582      1.00000
     23     -12.7463      1.00000
     24     -12.1967      1.00000
     25     -11.5441      1.00000
     26     -11.4425      1.00000
     27     -10.1529      1.00000
     28     -10.1371      1.00000
     29     -10.0948      1.00000
     30     -10.0783      1.00000
     31     -10.0377      1.00000
     32      -9.2344      1.00000
     33      -9.2309      1.00000
     34      -8.8824      1.00000
     35      -8.7721      1.00000
     36      -8.6541      1.00000
     37      -8.4451      1.00000
     38      -7.9671      1.00000
     39      -7.9351      1.00000
     40      -7.8868      1.00000
     41      -7.6993      1.00000
     42      -7.4362      1.00000
     43      -6.9008      1.00000
     44      -6.0698      1.00000
     45      -5.6006      1.00000
     46      -5.4630      1.00000
     47      -5.3464      1.00000
     48      -5.2964      1.00000
     49      -5.1294      1.00000
     50      -2.1260      0.00000
     51      -2.1098      0.00000
     52      -1.4512      0.00000
     53      -1.3018      0.00000
     54      -1.0154      0.00000
     55      -0.3511      0.00000
     56       0.5043      0.00000
     57       0.6323      0.00000
     58       0.8928      0.00000
     59       1.1170      0.00000
     60       1.2335      0.00000
     61       1.5231      0.00000

 k-point    71 :       0.2368    0.2368    0.2368
  band No.  band energies     occupation 
      1     -31.9370      1.00000
      2     -29.7652      1.00000
      3     -29.7603      1.00000
      4     -21.9954      1.00000
      5     -20.3451      1.00000
      6     -20.2946      1.00000
      7     -19.2204      1.00000
      8     -19.1284      1.00000
      9     -18.7664      1.00000
     10     -18.2512      1.00000
     11     -17.6951      1.00000
     12     -17.5837      1.00000
     13     -16.7700      1.00000
     14     -16.1329      1.00000
     15     -16.0413      1.00000
     16     -15.0717      1.00000
     17     -14.6651      1.00000
     18     -13.9949      1.00000
     19     -13.7108      1.00000
     20     -13.6641      1.00000
     21     -13.4620      1.00000
     22     -13.4582      1.00000
     23     -12.7908      1.00000
     24     -12.1994      1.00000
     25     -11.5705      1.00000
     26     -11.4469      1.00000
     27     -10.1535      1.00000
     28     -10.1342      1.00000
     29     -10.0871      1.00000
     30     -10.0737      1.00000
     31     -10.0406      1.00000
     32      -9.2344      1.00000
     33      -9.2308      1.00000
     34      -8.8653      1.00000
     35      -8.7374      1.00000
     36      -8.6540      1.00000
     37      -8.4456      1.00000
     38      -7.9776      1.00000
     39      -7.9311      1.00000
     40      -7.8800      1.00000
     41      -7.7136      1.00000
     42      -7.5309      1.00000
     43      -6.8342      1.00000
     44      -6.1973      1.00000
     45      -5.6337      1.00000
     46      -5.4908      1.00000
     47      -5.2916      1.00000
     48      -5.1570      1.00000
     49      -5.0505      1.00000
     50      -2.2887      0.00000
     51      -2.2447      0.00000
     52      -1.4274      0.00000
     53      -1.2553      0.00000
     54      -0.7416      0.00000
     55      -0.4203      0.00000
     56       0.3306      0.00000
     57       0.5600      0.00000
     58       0.8884      0.00000
     59       1.1711      0.00000
     60       1.2364      0.00000
     61       1.5559      0.00000

 k-point    72 :       0.2105    0.2105    0.2105
  band No.  band energies     occupation 
      1     -31.9370      1.00000
      2     -29.7652      1.00000
      3     -29.7603      1.00000
      4     -21.9968      1.00000
      5     -20.3361      1.00000
      6     -20.2814      1.00000
      7     -19.2360      1.00000
      8     -19.1743      1.00000
      9     -18.7874      1.00000
     10     -18.2390      1.00000
     11     -17.6108      1.00000
     12     -17.5231      1.00000
     13     -16.7700      1.00000
     14     -16.2147      1.00000
     15     -16.1374      1.00000
     16     -14.9757      1.00000
     17     -14.7493      1.00000
     18     -13.9476      1.00000
     19     -13.7107      1.00000
     20     -13.5616      1.00000
     21     -13.4619      1.00000
     22     -13.4581      1.00000
     23     -12.8464      1.00000
     24     -12.2028      1.00000
     25     -11.5968      1.00000
     26     -11.4630      1.00000
     27     -10.1544      1.00000
     28     -10.1314      1.00000
     29     -10.0799      1.00000
     30     -10.0687      1.00000
     31     -10.0388      1.00000
     32      -9.2343      1.00000
     33      -9.2308      1.00000
     34      -8.8352      1.00000
     35      -8.6991      1.00000
     36      -8.6537      1.00000
     37      -8.4461      1.00000
     38      -7.9899      1.00000
     39      -7.9259      1.00000
     40      -7.8727      1.00000
     41      -7.7304      1.00000
     42      -7.6227      1.00000
     43      -6.8238      1.00000
     44      -6.2682      1.00000
     45      -5.6662      1.00000
     46      -5.5320      1.00000
     47      -5.2251      1.00000
     48      -5.0161      1.00000
     49      -4.9589      1.00000
     50      -2.4518      0.00000
     51      -2.3880      0.00000
     52      -1.3873      0.00000
     53      -1.2093      0.00000
     54      -0.5029      0.00000
     55      -0.4710      0.00000
     56       0.1695      0.00000
     57       0.4918      0.00000
     58       0.8629      0.00000
     59       1.2075      0.00000
     60       1.2913      0.00000
     61       1.5164      0.00000

 k-point    73 :       0.1842    0.1842    0.1842
  band No.  band energies     occupation 
      1     -31.9370      1.00000
      2     -29.7652      1.00000
      3     -29.7603      1.00000
      4     -21.9984      1.00000
      5     -20.3225      1.00000
      6     -20.2682      1.00000
      7     -19.2525      1.00000
      8     -19.2166      1.00000
      9     -18.8392      1.00000
     10     -18.1876      1.00000
     11     -17.5257      1.00000
     12     -17.4583      1.00000
     13     -16.7700      1.00000
     14     -16.2984      1.00000
     15     -16.2355      1.00000
     16     -15.0349      1.00000
     17     -14.6722      1.00000
     18     -13.9032      1.00000
     19     -13.7107      1.00000
     20     -13.4644      1.00000
     21     -13.4602      1.00000
     22     -13.4578      1.00000
     23     -12.9117      1.00000
     24     -12.2068      1.00000
     25     -11.6222      1.00000
     26     -11.4901      1.00000
     27     -10.1555      1.00000
     28     -10.1291      1.00000
     29     -10.0831      1.00000
     30     -10.0559      1.00000
     31     -10.0299      1.00000
     32      -9.2342      1.00000
     33      -9.2308      1.00000
     34      -8.7929      1.00000
     35      -8.6603      1.00000
     36      -8.6505      1.00000
     37      -8.4462      1.00000
     38      -8.0038      1.00000
     39      -7.9198      1.00000
     40      -7.8653      1.00000
     41      -7.7488      1.00000
     42      -7.7112      1.00000
     43      -6.8851      1.00000
     44      -6.2671      1.00000
     45      -5.6970      1.00000
     46      -5.5796      1.00000
     47      -5.1541      1.00000
     48      -4.8740      1.00000
     49      -4.8552      1.00000
     50      -2.6143      0.00000
     51      -2.5387      0.00000
     52      -1.3343      0.00000
     53      -1.1650      0.00000
     54      -0.5894      0.00000
     55      -0.2402      0.00000
     56       0.0561      0.00000
     57       0.4295      0.00000
     58       0.8253      0.00000
     59       1.2353      0.00000
     60       1.3663      0.00000
     61       1.4784      0.00000

 k-point    74 :       0.1579    0.1579    0.1579
  band No.  band energies     occupation 
      1     -31.9370      1.00000
      2     -29.7651      1.00000
      3     -29.7603      1.00000
      4     -22.0002      1.00000
      5     -20.3051      1.00000
      6     -20.2553      1.00000
      7     -19.2702      1.00000
      8     -19.2547      1.00000
      9     -18.9040      1.00000
     10     -18.1152      1.00000
     11     -17.4396      1.00000
     12     -17.3898      1.00000
     13     -16.7700      1.00000
     14     -16.3837      1.00000
     15     -16.3344      1.00000
     16     -15.1539      1.00000
     17     -14.5288      1.00000
     18     -13.8625      1.00000
     19     -13.7107      1.00000
     20     -13.4620      1.00000
     21     -13.4581      1.00000
     22     -13.3692      1.00000
     23     -12.9844      1.00000
     24     -12.2112      1.00000
     25     -11.6462      1.00000
     26     -11.5262      1.00000
     27     -10.1572      1.00000
     28     -10.1274      1.00000
     29     -10.0916      1.00000
     30     -10.0381      1.00000
     31     -10.0169      1.00000
     32      -9.2342      1.00000
     33      -9.2308      1.00000
     34      -8.7399      1.00000
     35      -8.6544      1.00000
     36      -8.6110      1.00000
     37      -8.4455      1.00000
     38      -8.0197      1.00000
     39      -7.9134      1.00000
     40      -7.8590      1.00000
     41      -7.7968      1.00000
     42      -7.7663      1.00000
     43      -6.9921      1.00000
     44      -6.2204      1.00000
     45      -5.7254      1.00000
     46      -5.6295      1.00000
     47      -5.0828      1.00000
     48      -4.7411      1.00000
     49      -4.7298      1.00000
     50      -2.7755      0.00000
     51      -2.6957      0.00000
     52      -1.2728      0.00000
     53      -1.1237      0.00000
     54      -0.6780      0.00000
     55      -0.2174      0.00000
     56       0.1644      0.00000
     57       0.3741      0.00000
     58       0.7853      0.00000
     59       1.2445      0.00000
     60       1.4310      0.00000
     61       1.4930      0.00000

 k-point    75 :       0.1316    0.1316    0.1316
  band No.  band energies     occupation 
      1     -31.9370      1.00000
      2     -29.7652      1.00000
      3     -29.7603      1.00000
      4     -22.0020      1.00000
      5     -20.2850      1.00000
      6     -20.2431      1.00000
      7     -19.2899      1.00000
      8     -19.2876      1.00000
      9     -18.9687      1.00000
     10     -18.0355      1.00000
     11     -17.3529      1.00000
     12     -17.3180      1.00000
     13     -16.7701      1.00000
     14     -16.4701      1.00000
     15     -16.4333      1.00000
     16     -15.2731      1.00000
     17     -14.3769      1.00000
     18     -13.8265      1.00000
     19     -13.7107      1.00000
     20     -13.4619      1.00000
     21     -13.4581      1.00000
     22     -13.2898      1.00000
     23     -13.0588      1.00000
     24     -12.2157      1.00000
     25     -11.6679      1.00000
     26     -11.5685      1.00000
     27     -10.1595      1.00000
     28     -10.1264      1.00000
     29     -10.1007      1.00000
     30     -10.0190      1.00000
     31     -10.0026      1.00000
     32      -9.2341      1.00000
     33      -9.2308      1.00000
     34      -8.6793      1.00000
     35      -8.6529      1.00000
     36      -8.5633      1.00000
     37      -8.4432      1.00000
     38      -8.0386      1.00000
     39      -7.9082      1.00000
     40      -7.8841      1.00000
     41      -7.8465      1.00000
     42      -7.7841      1.00000
     43      -7.1135      1.00000
     44      -6.1591      1.00000
     45      -5.7507      1.00000
     46      -5.6781      1.00000
     47      -5.0147      1.00000
     48      -4.6147      1.00000
     49      -4.5866      1.00000
     50      -2.9347      0.00000
     51      -2.8579      0.00000
     52      -1.2077      0.00000
     53      -1.0866      0.00000
     54      -0.7630      0.00000
     55      -0.3204      0.00000
     56       0.3264      0.00000
     57       0.4189      0.00000
     58       0.7479      0.00000
     59       1.2280      0.00000
     60       1.4776      0.00000
     61       1.5683      0.00000

 k-point    76 :       0.1053    0.1053    0.1053
  band No.  band energies     occupation 
      1     -31.9370      1.00000
      2     -29.7651      1.00000
      3     -29.7603      1.00000
      4     -22.0038      1.00000
      5     -20.2637      1.00000
      6     -20.2322      1.00000
      7     -19.3169      1.00000
      8     -19.3093      1.00000
      9     -19.0258      1.00000
     10     -17.9574      1.00000
     11     -17.2655      1.00000
     12     -17.2432      1.00000
     13     -16.7701      1.00000
     14     -16.5575      1.00000
     15     -16.5317      1.00000
     16     -15.3809      1.00000
     17     -14.2260      1.00000
     18     -13.7958      1.00000
     19     -13.7107      1.00000
     20     -13.4619      1.00000
     21     -13.4581      1.00000
     22     -13.2539      1.00000
     23     -13.1066      1.00000
     24     -12.2199      1.00000
     25     -11.6868      1.00000
     26     -11.6132      1.00000
     27     -10.1624      1.00000
     28     -10.1257      1.00000
     29     -10.1087      1.00000
     30     -10.0004      1.00000
     31      -9.9886      1.00000
     32      -9.2341      1.00000
     33      -9.2308      1.00000
     34      -8.6555      1.00000
     35      -8.6099      1.00000
     36      -8.5131      1.00000
     37      -8.4369      1.00000
     38      -8.0620      1.00000
     39      -7.9635      1.00000
     40      -7.9005      1.00000
     41      -7.8430      1.00000
     42      -7.7997      1.00000
     43      -7.2313      1.00000
     44      -6.0994      1.00000
     45      -5.7722      1.00000
     46      -5.7225      1.00000
     47      -4.9533      1.00000
     48      -4.4794      1.00000
     49      -4.4438      1.00000
     50      -3.0906      0.00000
     51      -3.0230      0.00000
     52      -1.1441      0.00000
     53      -1.0547      0.00000
     54      -0.8396      0.00000
     55      -0.4220      0.00000
     56       0.2868      0.00000
     57       0.6681      0.00000
     58       0.7154      0.00000
     59       1.2005      0.00000
     60       1.5319      0.00000
     61       1.6580      0.00000

 k-point    77 :       0.0789    0.0789    0.0789
  band No.  band energies     occupation 
      1     -31.9370      1.00000
      2     -29.7651      1.00000
      3     -29.7603      1.00000
      4     -22.0052      1.00000
      5     -20.2434      1.00000
      6     -20.2231      1.00000
      7     -19.3397      1.00000
      8     -19.3303      1.00000
      9     -19.0708      1.00000
     10     -17.8879      1.00000
     11     -17.1776      1.00000
     12     -17.1651      1.00000
     13     -16.7702      1.00000
     14     -16.6454      1.00000
     15     -16.6290      1.00000
     16     -15.4716      1.00000
     17     -14.0792      1.00000
     18     -13.7711      1.00000
     19     -13.7106      1.00000
     20     -13.4619      1.00000
     21     -13.4581      1.00000
     22     -13.3091      1.00000
     23     -13.0825      1.00000
     24     -12.2236      1.00000
     25     -11.7023      1.00000
     26     -11.6558      1.00000
     27     -10.1657      1.00000
     28     -10.1253      1.00000
     29     -10.1148      1.00000
     30      -9.9842      1.00000
     31      -9.9763      1.00000
     32      -9.2340      1.00000
     33      -9.2308      1.00000
     34      -8.6548      1.00000
     35      -8.5477      1.00000
     36      -8.4614      1.00000
     37      -8.4197      1.00000
     38      -8.0923      1.00000
     39      -8.0391      1.00000
     40      -7.8963      1.00000
     41      -7.8387      1.00000
     42      -7.8124      1.00000
     43      -7.3351      1.00000
     44      -6.0489      1.00000
     45      -5.7895      1.00000
     46      -5.7601      1.00000
     47      -4.9016      1.00000
     48      -4.3378      1.00000
     49      -4.3039      1.00000
     50      -3.2406      0.00000
     51      -3.1878      0.00000
     52      -1.0873      0.00000
     53      -1.0289      0.00000
     54      -0.9040      0.00000
     55      -0.5056      0.00000
     56       0.2558      0.00000
     57       0.6892      0.00000
     58       1.1176      0.00000
     59       1.1745      0.00000
     60       1.5904      0.00000
     61       1.7435      0.00000

 k-point    78 :       0.0526    0.0526    0.0526
  band No.  band energies     occupation 
      1     -31.9370      1.00000
      2     -29.7651      1.00000
      3     -29.7602      1.00000
      4     -22.0064      1.00000
      5     -20.2263      1.00000
      6     -20.2161      1.00000
      7     -19.3564      1.00000
      8     -19.3494      1.00000
      9     -19.1022      1.00000
     10     -17.8329      1.00000
     11     -17.0894      1.00000
     12     -17.0838      1.00000
     13     -16.7707      1.00000
     14     -16.7337      1.00000
     15     -16.7247      1.00000
     16     -15.5406      1.00000
     17     -13.9392      1.00000
     18     -13.7531      1.00000
     19     -13.7106      1.00000
     20     -13.4619      1.00000
     21     -13.4581      1.00000
     22     -13.4051      1.00000
     23     -13.0391      1.00000
     24     -12.2265      1.00000
     25     -11.7138      1.00000
     26     -11.6913      1.00000
     27     -10.1687      1.00000
     28     -10.1251      1.00000
     29     -10.1189      1.00000
     30      -9.9717      1.00000
     31      -9.9667      1.00000
     32      -9.2340      1.00000
     33      -9.2308      1.00000
     34      -8.6547      1.00000
     35      -8.5069      1.00000
     36      -8.4044      1.00000
     37      -8.3819      1.00000
     38      -8.1318      1.00000
     39      -8.1109      1.00000
     40      -7.8934      1.00000
     41      -7.8354      1.00000
     42      -7.8217      1.00000
     43      -7.4163      1.00000
     44      -6.0110      1.00000
     45      -5.8021      1.00000
     46      -5.7885      1.00000
     47      -4.8623      1.00000
     48      -4.1968      1.00000
     49      -4.1725      1.00000
     50      -3.3794      0.00000
     51      -3.3455      0.00000
     52      -1.0425      0.00000
     53      -1.0100      0.00000
     54      -0.9525      0.00000
     55      -0.5671      0.00000
     56       0.2334      0.00000
     57       0.6702      0.00000
     58       1.1533      0.00000
     59       1.6387      0.00000
     60       1.7946      0.00000
     61       1.8264      0.00000

 k-point    79 :       0.0263    0.0263    0.0263
  band No.  band energies     occupation 
      1     -31.9371      1.00000
      2     -29.7651      1.00000
      3     -29.7603      1.00000
      4     -22.0071      1.00000
      5     -20.2151      1.00000
      6     -20.2115      1.00000
      7     -19.3666      1.00000
      8     -19.3631      1.00000
      9     -19.1203      1.00000
     10     -17.7975      1.00000
     11     -17.0009      1.00000
     12     -16.9991      1.00000
     13     -16.8229      1.00000
     14     -16.8195      1.00000
     15     -16.7692      1.00000
     16     -15.5838      1.00000
     17     -13.8117      1.00000
     18     -13.7420      1.00000
     19     -13.7106      1.00000
     20     -13.5092      1.00000
     21     -13.4618      1.00000
     22     -13.4579      1.00000
     23     -13.0078      1.00000
     24     -12.2283      1.00000
     25     -11.7214      1.00000
     26     -11.7147      1.00000
     27     -10.1709      1.00000
     28     -10.1250      1.00000
     29     -10.1211      1.00000
     30      -9.9638      1.00000
     31      -9.9606      1.00000
     32      -9.2340      1.00000
     33      -9.2308      1.00000
     34      -8.6546      1.00000
     35      -8.4912      1.00000
     36      -8.3395      1.00000
     37      -8.3313      1.00000
     38      -8.1809      1.00000
     39      -8.1754      1.00000
     40      -7.8918      1.00000
     41      -7.8335      1.00000
     42      -7.8271      1.00000
     43      -7.4681      1.00000
     44      -5.9877      1.00000
     45      -5.8097      1.00000
     46      -5.8062      1.00000
     47      -4.8378      1.00000
     48      -4.0742      1.00000
     49      -4.0639      1.00000
     50      -3.4920      0.00000
     51      -3.4783      0.00000
     52      -1.0139      0.00000
     53      -0.9989      0.00000
     54      -0.9820      0.00000
     55      -0.6046      0.00000
     56       0.2199      0.00000
     57       0.6586      0.00000
     58       1.1403      0.00000
     59       1.6742      0.00000
     60       1.8202      0.00000
     61       1.8341      0.00000

 k-point    80 :       0.0000    0.0000    0.0000
  band No.  band energies     occupation 
      1     -31.9371      1.00000
      2     -29.7651      1.00000
      3     -29.7603      1.00000
      4     -22.0074      1.00000
      5     -20.2117      1.00000
      6     -20.2093      1.00000
      7     -19.3702      1.00000
      8     -19.3680      1.00000
      9     -19.1262      1.00000
     10     -17.7852      1.00000
     11     -16.9188      1.00000
     12     -16.9160      1.00000
     13     -16.9066      1.00000
     14     -16.9038      1.00000
     15     -16.7695      1.00000
     16     -15.5986      1.00000
     17     -13.7392      1.00000
     18     -13.7366      1.00000
     19     -13.7106      1.00000
     20     -13.5758      1.00000
     21     -13.4618      1.00000
     22     -13.4580      1.00000
     23     -12.9968      1.00000
     24     -12.2289      1.00000
     25     -11.7255      1.00000
     26     -11.7214      1.00000
     27     -10.1717      1.00000
     28     -10.1250      1.00000
     29     -10.1217      1.00000
     30      -9.9611      1.00000
     31      -9.9585      1.00000
     32      -9.2340      1.00000
     33      -9.2308      1.00000
     34      -8.6546      1.00000
     35      -8.4875      1.00000
     36      -8.2984      1.00000
     37      -8.2968      1.00000
     38      -8.2164      1.00000
     39      -8.2129      1.00000
     40      -7.8914      1.00000
     41      -7.8332      1.00000
     42      -7.8286      1.00000
     43      -7.4859      1.00000
     44      -5.9799      1.00000
     45      -5.8126      1.00000
     46      -5.8119      1.00000
     47      -4.8295      1.00000
     48      -4.0198      1.00000
     49      -4.0144      1.00000
     50      -3.5413      0.00000
     51      -3.5378      0.00000
     52      -1.0047      0.00000
     53      -0.9969      0.00000
     54      -0.9896      0.00000
     55      -0.6171      0.00000
     56       0.2154      0.00000
     57       0.6548      0.00000
     58       1.1360      0.00000
     59       1.6875      0.00000
     60       1.8311      0.00000
     61       1.8706      0.00000

 k-point    81 :       0.0000    0.0000    0.0000
  band No.  band energies     occupation 
      1     -31.9371      1.00000
      2     -29.7651      1.00000
      3     -29.7603      1.00000
      4     -22.0074      1.00000
      5     -20.2117      1.00000
      6     -20.2093      1.00000
      7     -19.3702      1.00000
      8     -19.3680      1.00000
      9     -19.1262      1.00000
     10     -17.7852      1.00000
     11     -16.9188      1.00000
     12     -16.9160      1.00000
     13     -16.9066      1.00000
     14     -16.9038      1.00000
     15     -16.7695      1.00000
     16     -15.5986      1.00000
     17     -13.7392      1.00000
     18     -13.7366      1.00000
     19     -13.7106      1.00000
     20     -13.5758      1.00000
     21     -13.4618      1.00000
     22     -13.4580      1.00000
     23     -12.9968      1.00000
     24     -12.2289      1.00000
     25     -11.7255      1.00000
     26     -11.7214      1.00000
     27     -10.1717      1.00000
     28     -10.1250      1.00000
     29     -10.1217      1.00000
     30      -9.9611      1.00000
     31      -9.9585      1.00000
     32      -9.2340      1.00000
     33      -9.2308      1.00000
     34      -8.6546      1.00000
     35      -8.4875      1.00000
     36      -8.2984      1.00000
     37      -8.2968      1.00000
     38      -8.2164      1.00000
     39      -8.2129      1.00000
     40      -7.8914      1.00000
     41      -7.8332      1.00000
     42      -7.8286      1.00000
     43      -7.4859      1.00000
     44      -5.9799      1.00000
     45      -5.8126      1.00000
     46      -5.8119      1.00000
     47      -4.8295      1.00000
     48      -4.0198      1.00000
     49      -4.0144      1.00000
     50      -3.5413      0.00000
     51      -3.5378      0.00000
     52      -1.0047      0.00000
     53      -0.9969      0.00000
     54      -0.9896      0.00000
     55      -0.6171      0.00000
     56       0.2154      0.00000
     57       0.6548      0.00000
     58       1.1360      0.00000
     59       1.6882      0.00000
     60       1.8301      0.00000
     61       1.8805      0.00000

 k-point    82 :       0.0000    0.0263    0.0263
  band No.  band energies     occupation 
      1     -31.9370      1.00000
      2     -29.7651      1.00000
      3     -29.7603      1.00000
      4     -22.0073      1.00000
      5     -20.2123      1.00000
      6     -20.2106      1.00000
      7     -19.3687      1.00000
      8     -19.3666      1.00000
      9     -19.1242      1.00000
     10     -17.7893      1.00000
     11     -16.9658      1.00000
     12     -16.9598      1.00000
     13     -16.8621      1.00000
     14     -16.8565      1.00000
     15     -16.7695      1.00000
     16     -15.5937      1.00000
     17     -13.7686      1.00000
     18     -13.7383      1.00000
     19     -13.7106      1.00000
     20     -13.5485      1.00000
     21     -13.4618      1.00000
     22     -13.4580      1.00000
     23     -13.0005      1.00000
     24     -12.2287      1.00000
     25     -11.7227      1.00000
     26     -11.7205      1.00000
     27     -10.1714      1.00000
     28     -10.1249      1.00000
     29     -10.1217      1.00000
     30      -9.9619      1.00000
     31      -9.9592      1.00000
     32      -9.2340      1.00000
     33      -9.2308      1.00000
     34      -8.6546      1.00000
     35      -8.4881      1.00000
     36      -8.3171      1.00000
     37      -8.3110      1.00000
     38      -8.2002      1.00000
     39      -8.1978      1.00000
     40      -7.8915      1.00000
     41      -7.8328      1.00000
     42      -7.8285      1.00000
     43      -7.4800      1.00000
     44      -5.9825      1.00000
     45      -5.8117      1.00000
     46      -5.8099      1.00000
     47      -4.8323      1.00000
     48      -4.0402      1.00000
     49      -4.0312      1.00000
     50      -3.5226      0.00000
     51      -3.5178      0.00000
     52      -1.0077      0.00000
     53      -0.9950      0.00000
     54      -0.9898      0.00000
     55      -0.6129      0.00000
     56       0.2169      0.00000
     57       0.6559      0.00000
     58       1.1380      0.00000
     59       1.6821      0.00000
     60       1.8272      0.00000
     61       1.8539      0.00000

 k-point    83 :       0.0000    0.0526    0.0526
  band No.  band energies     occupation 
      1     -31.9371      1.00000
      2     -29.7651      1.00000
      3     -29.7602      1.00000
      4     -22.0071      1.00000
      5     -20.2152      1.00000
      6     -20.2132      1.00000
      7     -19.3648      1.00000
      8     -19.3621      1.00000
      9     -19.1184      1.00000
     10     -17.8016      1.00000
     11     -17.0229      1.00000
     12     -17.0027      1.00000
     13     -16.8175      1.00000
     14     -16.7984      1.00000
     15     -16.7689      1.00000
     16     -15.5789      1.00000
     17     -13.8309      1.00000
     18     -13.7421      1.00000
     19     -13.7107      1.00000
     20     -13.4938      1.00000
     21     -13.4618      1.00000
     22     -13.4579      1.00000
     23     -13.0115      1.00000
     24     -12.2281      1.00000
     25     -11.7185      1.00000
     26     -11.7140      1.00000
     27     -10.1705      1.00000
     28     -10.1247      1.00000
     29     -10.1215      1.00000
     30      -9.9645      1.00000
     31      -9.9614      1.00000
     32      -9.2340      1.00000
     33      -9.2308      1.00000
     34      -8.6547      1.00000
     35      -8.4900      1.00000
     36      -8.3548      1.00000
     37      -8.3388      1.00000
     38      -8.1701      1.00000
     39      -8.1665      1.00000
     40      -7.8920      1.00000
     41      -7.8321      1.00000
     42      -7.8279      1.00000
     43      -7.4625      1.00000
     44      -5.9904      1.00000
     45      -5.8091      1.00000
     46      -5.8040      1.00000
     47      -4.8406      1.00000
     48      -4.0946      1.00000
     49      -4.0738      1.00000
     50      -3.4784      0.00000
     51      -3.4602      0.00000
     52      -1.0182      0.00000
     53      -0.9940      0.00000
     54      -0.9838      0.00000
     55      -0.6004      0.00000
     56       0.2215      0.00000
     57       0.6592      0.00000
     58       1.1440      0.00000
     59       1.6675      0.00000
     60       1.8079      0.00000
     61       1.8350      0.00000

 k-point    84 :       0.0000    0.0789    0.0789
  band No.  band energies     occupation 
      1     -31.9370      1.00000
      2     -29.7651      1.00000
      3     -29.7602      1.00000
      4     -22.0066      1.00000
      5     -20.2216      1.00000
      6     -20.2157      1.00000
      7     -19.3595      1.00000
      8     -19.3539      1.00000
      9     -19.1084      1.00000
     10     -17.8215      1.00000
     11     -17.0836      1.00000
     12     -17.0400      1.00000
     13     -16.7783      1.00000
     14     -16.7697      1.00000
     15     -16.7336      1.00000
     16     -15.5548      1.00000
     17     -13.9040      1.00000
     18     -13.7486      1.00000
     19     -13.7107      1.00000
     20     -13.4619      1.00000
     21     -13.4581      1.00000
     22     -13.4330      1.00000
     23     -13.0291      1.00000
     24     -12.2271      1.00000
     25     -11.7145      1.00000
     26     -11.7007      1.00000
     27     -10.1690      1.00000
     28     -10.1243      1.00000
     29     -10.1209      1.00000
     30      -9.9687      1.00000
     31      -9.9649      1.00000
     32      -9.2340      1.00000
     33      -9.2308      1.00000
     34      -8.6547      1.00000
     35      -8.4945      1.00000
     36      -8.3969      1.00000
     37      -8.3687      1.00000
     38      -8.1422      1.00000
     39      -8.1274      1.00000
     40      -7.8930      1.00000
     41      -7.8323      1.00000
     42      -7.8256      1.00000
     43      -7.4339      1.00000
     44      -6.0034      1.00000
     45      -5.8048      1.00000
     46      -5.7941      1.00000
     47      -4.8543      1.00000
     48      -4.1706      1.00000
     49      -4.1294      1.00000
     50      -3.4201      0.00000
     51      -3.3786      0.00000
     52      -1.0369      0.00000
     53      -0.9944      0.00000
     54      -0.9703      0.00000
     55      -0.5796      0.00000
     56       0.2292      0.00000
     57       0.6647      0.00000
     58       1.1539      0.00000
     59       1.6466      0.00000
     60       1.8096      0.00000
     61       1.8392      0.00000

 k-point    85 :       0.0000    0.1053    0.1053
  band No.  band energies     occupation 
      1     -31.9370      1.00000
      2     -29.7651      1.00000
      3     -29.7602      1.00000
      4     -22.0061      1.00000
      5     -20.2302      1.00000
      6     -20.2189      1.00000
      7     -19.3532      1.00000
      8     -19.3423      1.00000
      9     -19.0942      1.00000
     10     -17.8483      1.00000
     11     -17.1470      1.00000
     12     -17.0717      1.00000
     13     -16.7703      1.00000
     14     -16.7422      1.00000
     15     -16.6668      1.00000
     16     -15.5218      1.00000
     17     -13.9819      1.00000
     18     -13.7580      1.00000
     19     -13.7107      1.00000
     20     -13.4619      1.00000
     21     -13.4581      1.00000
     22     -13.3728      1.00000
     23     -13.0524      1.00000
     24     -12.2257      1.00000
     25     -11.7091      1.00000
     26     -11.6830      1.00000
     27     -10.1671      1.00000
     28     -10.1241      1.00000
     29     -10.1199      1.00000
     30      -9.9746      1.00000
     31      -9.9696      1.00000
     32      -9.2340      1.00000
     33      -9.2308      1.00000
     34      -8.6549      1.00000
     35      -8.5050      1.00000
     36      -8.4364      1.00000
     37      -8.3973      1.00000
     38      -8.1179      1.00000
     39      -8.0856      1.00000
     40      -7.8944      1.00000
     41      -7.8332      1.00000
     42      -7.8216      1.00000
     43      -7.3949      1.00000
     44      -6.0215      1.00000
     45      -5.7986      1.00000
     46      -5.7807      1.00000
     47      -4.8731      1.00000
     48      -4.2593      1.00000
     49      -4.1895      1.00000
     50      -3.3564      0.00000
     51      -3.2822      0.00000
     52      -1.0630      0.00000
     53      -0.9945      0.00000
     54      -0.9516      0.00000
     55      -0.5507      0.00000
     56       0.2399      0.00000
     57       0.6725      0.00000
     58       1.1675      0.00000
     59       1.5497      0.00000
     60       1.6238      0.00000
     61       1.7953      0.00000

 k-point    86 :       0.0000    0.1316    0.1316
  band No.  band energies     occupation 
      1     -31.9370      1.00000
      2     -29.7651      1.00000
      3     -29.7602      1.00000
      4     -22.0054      1.00000
      5     -20.2407      1.00000
      6     -20.2228      1.00000
      7     -19.3464      1.00000
      8     -19.3276      1.00000
      9     -19.0755      1.00000
     10     -17.8811      1.00000
     11     -17.2127      1.00000
     12     -17.0982      1.00000
     13     -16.7701      1.00000
     14     -16.7118      1.00000
     15     -16.5963      1.00000
     16     -15.4807      1.00000
     17     -14.0627      1.00000
     18     -13.7707      1.00000
     19     -13.7107      1.00000
     20     -13.4619      1.00000
     21     -13.4581      1.00000
     22     -13.3146      1.00000
     23     -13.0802      1.00000
     24     -12.2240      1.00000
     25     -11.7022      1.00000
     26     -11.6618      1.00000
     27     -10.1649      1.00000
     28     -10.1241      1.00000
     29     -10.1182      1.00000
     30      -9.9819      1.00000
     31      -9.9753      1.00000
     32      -9.2340      1.00000
     33      -9.2308      1.00000
     34      -8.6551      1.00000
     35      -8.5291      1.00000
     36      -8.4650      1.00000
     37      -8.4227      1.00000
     38      -8.0976      1.00000
     39      -8.0420      1.00000
     40      -7.8964      1.00000
     41      -7.8344      1.00000
     42      -7.8164      1.00000
     43      -7.3466      1.00000
     44      -6.0443      1.00000
     45      -5.7907      1.00000
     46      -5.7641      1.00000
     47      -4.8966      1.00000
     48      -4.3556      1.00000
     49      -4.2492      1.00000
     50      -3.2921      0.00000
     51      -3.1760      0.00000
     52      -1.0953      0.00000
     53      -0.9946      0.00000
     54      -0.9283      0.00000
     55      -0.5139      0.00000
     56       0.2536      0.00000
     57       0.6824      0.00000
     58       1.1842      0.00000
     59       1.2681      0.00000
     60       1.5837      0.00000
     61       1.7720      0.00000

 k-point    87 :       0.0000    0.1579    0.1579
  band No.  band energies     occupation 
      1     -31.9370      1.00000
      2     -29.7651      1.00000
      3     -29.7602      1.00000
      4     -22.0046      1.00000
      5     -20.2525      1.00000
      6     -20.2272      1.00000
      7     -19.3396      1.00000
      8     -19.3102      1.00000
      9     -19.0522      1.00000
     10     -17.9187      1.00000
     11     -17.2799      1.00000
     12     -17.1202      1.00000
     13     -16.7700      1.00000
     14     -16.6856      1.00000
     15     -16.5229      1.00000
     16     -15.4322      1.00000
     17     -14.1456      1.00000
     18     -13.7871      1.00000
     19     -13.7107      1.00000
     20     -13.4619      1.00000
     21     -13.4581      1.00000
     22     -13.2594      1.00000
     23     -13.1112      1.00000
     24     -12.2220      1.00000
     25     -11.6941      1.00000
     26     -11.6379      1.00000
     27     -10.1626      1.00000
     28     -10.1242      1.00000
     29     -10.1158      1.00000
     30      -9.9906      1.00000
     31      -9.9819      1.00000
     32      -9.2340      1.00000
     33      -9.2308      1.00000
     34      -8.6553      1.00000
     35      -8.5669      1.00000
     36      -8.4835      1.00000
     37      -8.4425      1.00000
     38      -8.0810      1.00000
     39      -7.9972      1.00000
     40      -7.8990      1.00000
     41      -7.8356      1.00000
     42      -7.8104      1.00000
     43      -7.2902      1.00000
     44      -6.0715      1.00000
     45      -5.7808      1.00000
     46      -5.7447      1.00000
     47      -4.9245      1.00000
     48      -4.4566      1.00000
     49      -4.3063      1.00000
     50      -3.2297      0.00000
     51      -3.0625      0.00000
     52      -1.1327      0.00000
     53      -0.9945      0.00000
     54      -0.9012      0.00000
     55      -0.4697      0.00000
     56       0.2703      0.00000
     57       0.6946      0.00000
     58       0.8160      0.00000
     59       1.2038      0.00000
     60       1.5414      0.00000
     61       1.7525      0.00000

 k-point    88 :       0.0000    0.1842    0.1842
  band No.  band energies     occupation 
      1     -31.9370      1.00000
      2     -29.7651      1.00000
      3     -29.7603      1.00000
      4     -22.0037      1.00000
      5     -20.2651      1.00000
      6     -20.2319      1.00000
      7     -19.3332      1.00000
      8     -19.2902      1.00000
      9     -19.0246      1.00000
     10     -17.9601      1.00000
     11     -17.3483      1.00000
     12     -17.1382      1.00000
     13     -16.7700      1.00000
     14     -16.6633      1.00000
     15     -16.4471      1.00000
     16     -15.3774      1.00000
     17     -14.2299      1.00000
     18     -13.8078      1.00000
     19     -13.7107      1.00000
     20     -13.4619      1.00000
     21     -13.4582      1.00000
     22     -13.2075      1.00000
     23     -13.1439      1.00000
     24     -12.2197      1.00000
     25     -11.6849      1.00000
     26     -11.6123      1.00000
     27     -10.1603      1.00000
     28     -10.1245      1.00000
     29     -10.1127      1.00000
     30     -10.0003      1.00000
     31      -9.9891      1.00000
     32      -9.2341      1.00000
     33      -9.2308      1.00000
     34      -8.6559      1.00000
     35      -8.6098      1.00000
     36      -8.5015      1.00000
     37      -8.4548      1.00000
     38      -8.0678      1.00000
     39      -7.9516      1.00000
     40      -7.9021      1.00000
     41      -7.8368      1.00000
     42      -7.8036      1.00000
     43      -7.2270      1.00000
     44      -6.1028      1.00000
     45      -5.7690      1.00000
     46      -5.7229      1.00000
     47      -4.9561      1.00000
     48      -4.5604      1.00000
     49      -4.3594      1.00000
     50      -3.1708      0.00000
     51      -2.9433      0.00000
     52      -1.1739      0.00000
     53      -0.9944      0.00000
     54      -0.8711      0.00000
     55      -0.4183      0.00000
     56       0.2899      0.00000
     57       0.6967      0.00000
     58       0.7090      0.00000
     59       1.2244      0.00000
     60       1.5002      0.00000
     61       1.7398      0.00000

 k-point    89 :       0.0000    0.2105    0.2105
  band No.  band energies     occupation 
      1     -31.9370      1.00000
      2     -29.7651      1.00000
      3     -29.7603      1.00000
      4     -22.0027      1.00000
      5     -20.2783      1.00000
      6     -20.2369      1.00000
      7     -19.3275      1.00000
      8     -19.2680      1.00000
      9     -18.9928      1.00000
     10     -18.0041      1.00000
     11     -17.4171      1.00000
     12     -17.1528      1.00000
     13     -16.7700      1.00000
     14     -16.6444      1.00000
     15     -16.3693      1.00000
     16     -15.3170      1.00000
     17     -14.3154      1.00000
     18     -13.8333      1.00000
     19     -13.7107      1.00000
     20     -13.4619      1.00000
     21     -13.4582      1.00000
     22     -13.1770      1.00000
     23     -13.1593      1.00000
     24     -12.2173      1.00000
     25     -11.6747      1.00000
     26     -11.5858      1.00000
     27     -10.1582      1.00000
     28     -10.1249      1.00000
     29     -10.1090      1.00000
     30     -10.0107      1.00000
     31      -9.9968      1.00000
     32      -9.2341      1.00000
     33      -9.2308      1.00000
     34      -8.6606      1.00000
     35      -8.6492      1.00000
     36      -8.5210      1.00000
     37      -8.4614      1.00000
     38      -8.0572      1.00000
     39      -7.9096      1.00000
     40      -7.9018      1.00000
     41      -7.8377      1.00000
     42      -7.7962      1.00000
     43      -7.1582      1.00000
     44      -6.1375      1.00000
     45      -5.7552      1.00000
     46      -5.6994      1.00000
     47      -4.9911      1.00000
     48      -4.6660      1.00000
     49      -4.4079      1.00000
     50      -3.1162      0.00000
     51      -2.8194      0.00000
     52      -1.2179      0.00000
     53      -0.9943      0.00000
     54      -0.8387      0.00000
     55      -0.3605      0.00000
     56       0.3123      0.00000
     57       0.5214      0.00000
     58       0.7254      0.00000
     59       1.2431      0.00000
     60       1.4586      0.00000
     61       1.7054      0.00000

 k-point    90 :       0.0000    0.2368    0.2368
  band No.  band energies     occupation 
      1     -31.9370      1.00000
      2     -29.7651      1.00000
      3     -29.7603      1.00000
      4     -22.0017      1.00000
      5     -20.2915      1.00000
      6     -20.2421      1.00000
      7     -19.3225      1.00000
      8     -19.2439      1.00000
      9     -18.9574      1.00000
     10     -18.0497      1.00000
     11     -17.4859      1.00000
     12     -17.1647      1.00000
     13     -16.7699      1.00000
     14     -16.6287      1.00000
     15     -16.2900      1.00000
     16     -15.2520      1.00000
     17     -14.4016      1.00000
     18     -13.8640      1.00000
     19     -13.7107      1.00000
     20     -13.4619      1.00000
     21     -13.4582      1.00000
     22     -13.2092      1.00000
     23     -13.1151      1.00000
     24     -12.2148      1.00000
     25     -11.6637      1.00000
     26     -11.5592      1.00000
     27     -10.1564      1.00000
     28     -10.1254      1.00000
     29     -10.1048      1.00000
     30     -10.0217      1.00000
     31     -10.0046      1.00000
     32      -9.2342      1.00000
     33      -9.2308      1.00000
     34      -8.6976      1.00000
     35      -8.6551      1.00000
     36      -8.5406      1.00000
     37      -8.4650      1.00000
     38      -8.0489      1.00000
     39      -7.9107      1.00000
     40      -7.8595      1.00000
     41      -7.8376      1.00000
     42      -7.7885      1.00000
     43      -7.0849      1.00000
     44      -6.1751      1.00000
     45      -5.7393      1.00000
     46      -5.6747      1.00000
     47      -5.0288      1.00000
     48      -4.7721      1.00000
     49      -4.4515      1.00000
     50      -3.0664      0.00000
     51      -2.6915      0.00000
     52      -1.2632      0.00000
     53      -0.9941      0.00000
     54      -0.8050      0.00000
     55      -0.2970      0.00000
     56       0.3372      0.00000
     57       0.3560      0.00000
     58       0.7446      0.00000
     59       1.2534      0.00000
     60       1.4266      0.00000
     61       1.6825      0.00000

 k-point    91 :       0.0000    0.2632    0.2632
  band No.  band energies     occupation 
      1     -31.9370      1.00000
      2     -29.7651      1.00000
      3     -29.7603      1.00000
      4     -22.0007      1.00000
      5     -20.3044      1.00000
      6     -20.2471      1.00000
      7     -19.3183      1.00000
      8     -19.2185      1.00000
      9     -18.9190      1.00000
     10     -18.0960      1.00000
     11     -17.5542      1.00000
     12     -17.1743      1.00000
     13     -16.7699      1.00000
     14     -16.6155      1.00000
     15     -16.2095      1.00000
     16     -15.1832      1.00000
     17     -14.4883      1.00000
     18     -13.9005      1.00000
     19     -13.7107      1.00000
     20     -13.4619      1.00000
     21     -13.4583      1.00000
     22     -13.2393      1.00000
     23     -13.0749      1.00000
     24     -12.2123      1.00000
     25     -11.6523      1.00000
     26     -11.5331      1.00000
     27     -10.1549      1.00000
     28     -10.1260      1.00000
     29     -10.1004      1.00000
     30     -10.0327      1.00000
     31     -10.0123      1.00000
     32      -9.2342      1.00000
     33      -9.2308      1.00000
     34      -8.7376      1.00000
     35      -8.6560      1.00000
     36      -8.5590      1.00000
     37      -8.4672      1.00000
     38      -8.0423      1.00000
     39      -7.9151      1.00000
     40      -7.8409      1.00000
     41      -7.8116      1.00000
     42      -7.7803      1.00000
     43      -7.0084      1.00000
     44      -6.2148      1.00000
     45      -5.7213      1.00000
     46      -5.6495      1.00000
     47      -5.0687      1.00000
     48      -4.8781      1.00000
     49      -4.4902      1.00000
     50      -3.0216      0.00000
     51      -2.5601      0.00000
     52      -1.3087      0.00000
     53      -0.9939      0.00000
     54      -0.7709      0.00000
     55      -0.2286      0.00000
     56       0.1999      0.00000
     57       0.3657      0.00000
     58       0.7635      0.00000
     59       1.2448      0.00000
     60       1.4138      0.00000
     61       1.6581      0.00000

 k-point    92 :       0.0000    0.2895    0.2895
  band No.  band energies     occupation 
      1     -31.9370      1.00000
      2     -29.7652      1.00000
      3     -29.7603      1.00000
      4     -21.9997      1.00000
      5     -20.3167      1.00000
      6     -20.2520      1.00000
      7     -19.3148      1.00000
      8     -19.1921      1.00000
      9     -18.8782      1.00000
     10     -18.1419      1.00000
     11     -17.6213      1.00000
     12     -17.1820      1.00000
     13     -16.7699      1.00000
     14     -16.6046      1.00000
     15     -16.1282      1.00000
     16     -15.1114      1.00000
     17     -14.5749      1.00000
     18     -13.9427      1.00000
     19     -13.7107      1.00000
     20     -13.4619      1.00000
     21     -13.4583      1.00000
     22     -13.2666      1.00000
     23     -13.0389      1.00000
     24     -12.2097      1.00000
     25     -11.6407      1.00000
     26     -11.5083      1.00000
     27     -10.1537      1.00000
     28     -10.1269      1.00000
     29     -10.0961      1.00000
     30     -10.0434      1.00000
     31     -10.0196      1.00000
     32      -9.2343      1.00000
     33      -9.2308      1.00000
     34      -8.7750      1.00000
     35      -8.6568      1.00000
     36      -8.5757      1.00000
     37      -8.4687      1.00000
     38      -8.0370      1.00000
     39      -7.9196      1.00000
     40      -7.8409      1.00000
     41      -7.7765      1.00000
     42      -7.7632      1.00000
     43      -6.9295      1.00000
     44      -6.2555      1.00000
     45      -5.7012      1.00000
     46      -5.6246      1.00000
     47      -5.1103      1.00000
     48      -4.9828      1.00000
     49      -4.5240      1.00000
     50      -2.9819      0.00000
     51      -2.4258      0.00000
     52      -1.3532      0.00000
     53      -0.9938      0.00000
     54      -0.7372      0.00000
     55      -0.1565      0.00000
     56       0.0451      0.00000
     57       0.3963      0.00000
     58       0.7845      0.00000
     59       1.2158      0.00000
     60       1.4211      0.00000
     61       1.6333      0.00000

 k-point    93 :       0.0000    0.3158    0.3158
  band No.  band energies     occupation 
      1     -31.9370      1.00000
      2     -29.7652      1.00000
      3     -29.7603      1.00000
      4     -21.9987      1.00000
      5     -20.3282      1.00000
      6     -20.2565      1.00000
      7     -19.3120      1.00000
      8     -19.1652      1.00000
      9     -18.8360      1.00000
     10     -18.1865      1.00000
     11     -17.6864      1.00000
     12     -17.1882      1.00000
     13     -16.7699      1.00000
     14     -16.5957      1.00000
     15     -16.0468      1.00000
     16     -15.0373      1.00000
     17     -14.6611      1.00000
     18     -13.9906      1.00000
     19     -13.7106      1.00000
     20     -13.4619      1.00000
     21     -13.4584      1.00000
     22     -13.2905      1.00000
     23     -13.0072      1.00000
     24     -12.2073      1.00000
     25     -11.6293      1.00000
     26     -11.4851      1.00000
     27     -10.1528      1.00000
     28     -10.1279      1.00000
     29     -10.0923      1.00000
     30     -10.0534      1.00000
     31     -10.0259      1.00000
     32      -9.2343      1.00000
     33      -9.2309      1.00000
     34      -8.8093      1.00000
     35      -8.6578      1.00000
     36      -8.5904      1.00000
     37      -8.4698      1.00000
     38      -8.0328      1.00000
     39      -7.9240      1.00000
     40      -7.8413      1.00000
     41      -7.7672      1.00000
     42      -7.7217      1.00000
     43      -6.8495      1.00000
     44      -6.2964      1.00000
     45      -5.6788      1.00000
     46      -5.6004      1.00000
     47      -5.1531      1.00000
     48      -5.0853      1.00000
     49      -4.5531      1.00000
     50      -2.9472      0.00000
     51      -2.2889      0.00000
     52      -1.3955      0.00000
     53      -0.9936      0.00000
     54      -0.7050      0.00000
     55      -0.1121      0.00000
     56      -0.0820      0.00000
     57       0.4294      0.00000
     58       0.8054      0.00000
     59       1.1753      0.00000
     60       1.4341      0.00000
     61       1.6147      0.00000

 k-point    94 :       0.0000    0.3421    0.3421
  band No.  band energies     occupation 
      1     -31.9370      1.00000
      2     -29.7651      1.00000
      3     -29.7603      1.00000
      4     -21.9978      1.00000
      5     -20.3386      1.00000
      6     -20.2607      1.00000
      7     -19.3097      1.00000
      8     -19.1387      1.00000
      9     -18.7932      1.00000
     10     -18.2289      1.00000
     11     -17.7488      1.00000
     12     -17.1932      1.00000
     13     -16.7699      1.00000
     14     -16.5884      1.00000
     15     -15.9658      1.00000
     16     -14.9617      1.00000
     17     -14.7462      1.00000
     18     -14.0438      1.00000
     19     -13.7106      1.00000
     20     -13.4619      1.00000
     21     -13.4584      1.00000
     22     -13.3108      1.00000
     23     -12.9797      1.00000
     24     -12.2050      1.00000
     25     -11.6183      1.00000
     26     -11.4641      1.00000
     27     -10.1522      1.00000
     28     -10.1291      1.00000
     29     -10.0897      1.00000
     30     -10.0621      1.00000
     31     -10.0309      1.00000
     32      -9.2344      1.00000
     33      -9.2309      1.00000
     34      -8.8400      1.00000
     35      -8.6590      1.00000
     36      -8.6028      1.00000
     37      -8.4705      1.00000
     38      -8.0296      1.00000
     39      -7.9283      1.00000
     40      -7.8417      1.00000
     41      -7.7602      1.00000
     42      -7.6807      1.00000
     43      -6.7698      1.00000
     44      -6.3361      1.00000
     45      -5.6543      1.00000
     46      -5.5779      1.00000
     47      -5.1974      1.00000
     48      -5.1835      1.00000
     49      -4.5777      1.00000
     50      -2.9176      0.00000
     51      -2.1500      0.00000
     52      -1.4346      0.00000
     53      -0.9934      0.00000
     54      -0.6749      0.00000
     55      -0.2677      0.00000
     56      -0.0069      0.00000
     57       0.4649      0.00000
     58       0.8247      0.00000
     59       1.1343      0.00000
     60       1.4373      0.00000
     61       1.6096      0.00000

 k-point    95 :       0.0000    0.3684    0.3684
  band No.  band energies     occupation 
      1     -31.9370      1.00000
      2     -29.7652      1.00000
      3     -29.7603      1.00000
      4     -21.9969      1.00000
      5     -20.3477      1.00000
      6     -20.2644      1.00000
      7     -19.3079      1.00000
      8     -19.1133      1.00000
      9     -18.7511      1.00000
     10     -18.2681      1.00000
     11     -17.8073      1.00000
     12     -17.1971      1.00000
     13     -16.7699      1.00000
     14     -16.5826      1.00000
     15     -15.8863      1.00000
     16     -14.8854      1.00000
     17     -14.8291      1.00000
     18     -14.1016      1.00000
     19     -13.7106      1.00000
     20     -13.4619      1.00000
     21     -13.4585      1.00000
     22     -13.3274      1.00000
     23     -12.9565      1.00000
     24     -12.2029      1.00000
     25     -11.6083      1.00000
     26     -11.4457      1.00000
     27     -10.1518      1.00000
     28     -10.1306      1.00000
     29     -10.0889      1.00000
     30     -10.0690      1.00000
     31     -10.0344      1.00000
     32      -9.2345      1.00000
     33      -9.2309      1.00000
     34      -8.8666      1.00000
     35      -8.6605      1.00000
     36      -8.6129      1.00000
     37      -8.4711      1.00000
     38      -8.0270      1.00000
     39      -7.9321      1.00000
     40      -7.8419      1.00000
     41      -7.7541      1.00000
     42      -7.6427      1.00000
     43      -6.6921      1.00000
     44      -6.3735      1.00000
     45      -5.6276      1.00000
     46      -5.5575      1.00000
     47      -5.2794      1.00000
     48      -5.2389      1.00000
     49      -4.5981      1.00000
     50      -2.8929      0.00000
     51      -2.0097      0.00000
     52      -1.4695      0.00000
     53      -0.9933      0.00000
     54      -0.6480      0.00000
     55      -0.4224      0.00000
     56       0.0663      0.00000
     57       0.5027      0.00000
     58       0.8386      0.00000
     59       1.0963      0.00000
     60       1.4226      0.00000
     61       1.6226      0.00000

 k-point    96 :       0.0000    0.3947    0.3947
  band No.  band energies     occupation 
      1     -31.9370      1.00000
      2     -29.7652      1.00000
      3     -29.7603      1.00000
      4     -21.9962      1.00000
      5     -20.3553      1.00000
      6     -20.2675      1.00000
      7     -19.3064      1.00000
      8     -19.0900      1.00000
      9     -18.7114      1.00000
     10     -18.3028      1.00000
     11     -17.8604      1.00000
     12     -17.2001      1.00000
     13     -16.7699      1.00000
     14     -16.5781      1.00000
     15     -15.8097      1.00000
     16     -14.9085      1.00000
     17     -14.8093      1.00000
     18     -14.1629      1.00000
     19     -13.7106      1.00000
     20     -13.4620      1.00000
     21     -13.4585      1.00000
     22     -13.3406      1.00000
     23     -12.9376      1.00000
     24     -12.2012      1.00000
     25     -11.5995      1.00000
     26     -11.4302      1.00000
     27     -10.1516      1.00000
     28     -10.1322      1.00000
     29     -10.0901      1.00000
     30     -10.0738      1.00000
     31     -10.0361      1.00000
     32      -9.2345      1.00000
     33      -9.2309      1.00000
     34      -8.8888      1.00000
     35      -8.6622      1.00000
     36      -8.6207      1.00000
     37      -8.4716      1.00000
     38      -8.0250      1.00000
     39      -7.9354      1.00000
     40      -7.8421      1.00000
     41      -7.7489      1.00000
     42      -7.6091      1.00000
     43      -6.6186      1.00000
     44      -6.4071      1.00000
     45      -5.5991      1.00000
     46      -5.5399      1.00000
     47      -5.3660      1.00000
     48      -5.2819      1.00000
     49      -4.6144      1.00000
     50      -2.8728      0.00000
     51      -1.8690      0.00000
     52      -1.4993      0.00000
     53      -0.9932      0.00000
     54      -0.6251      0.00000
     55      -0.5748      0.00000
     56       0.1355      0.00000
     57       0.5423      0.00000
     58       0.8413      0.00000
     59       1.0707      0.00000
     60       1.3905      0.00000
     61       1.6458      0.00000

 k-point    97 :       0.0000    0.4211    0.4211
  band No.  band energies     occupation 
      1     -31.9370      1.00000
      2     -29.7652      1.00000
      3     -29.7603      1.00000
      4     -21.9956      1.00000
      5     -20.3614      1.00000
      6     -20.2700      1.00000
      7     -19.3054      1.00000
      8     -19.0699      1.00000
      9     -18.6760      1.00000
     10     -18.3319      1.00000
     11     -17.9061      1.00000
     12     -17.2023      1.00000
     13     -16.7699      1.00000
     14     -16.5747      1.00000
     15     -15.7387      1.00000
     16     -14.9816      1.00000
     17     -14.7349      1.00000
     18     -14.2260      1.00000
     19     -13.7106      1.00000
     20     -13.4620      1.00000
     21     -13.4586      1.00000
     22     -13.3505      1.00000
     23     -12.9229      1.00000
     24     -12.1997      1.00000
     25     -11.5923      1.00000
     26     -11.4178      1.00000
     27     -10.1516      1.00000
     28     -10.1338      1.00000
     29     -10.0924      1.00000
     30     -10.0768      1.00000
     31     -10.0366      1.00000
     32      -9.2346      1.00000
     33      -9.2309      1.00000
     34      -8.9065      1.00000
     35      -8.6641      1.00000
     36      -8.6263      1.00000
     37      -8.4719      1.00000
     38      -8.0236      1.00000
     39      -7.9381      1.00000
     40      -7.8423      1.00000
     41      -7.7447      1.00000
     42      -7.5811      1.00000
     43      -6.5528      1.00000
     44      -6.4353      1.00000
     45      -5.5689      1.00000
     46      -5.5257      1.00000
     47      -5.4421      1.00000
     48      -5.3236      1.00000
     49      -4.6269      1.00000
     50      -2.8574      0.00000
     51      -1.7298      0.00000
     52      -1.5233      0.00000
     53      -0.9931      0.00000
     54      -0.7237      0.00000
     55      -0.6061      0.00000
     56       0.1965      0.00000
     57       0.5834      0.00000
     58       0.8285      0.00000
     59       1.0616      0.00000
     60       1.3549      0.00000
     61       1.6496      0.00000

 k-point    98 :       0.0000    0.4474    0.4474
  band No.  band energies     occupation 
      1     -31.9370      1.00000
      2     -29.7652      1.00000
      3     -29.7603      1.00000
      4     -21.9952      1.00000
      5     -20.3658      1.00000
      6     -20.2718      1.00000
      7     -19.3047      1.00000
      8     -19.0543      1.00000
      9     -18.6475      1.00000
     10     -18.3540      1.00000
     11     -17.9419      1.00000
     12     -17.2038      1.00000
     13     -16.7699      1.00000
     14     -16.5723      1.00000
     15     -15.6778      1.00000
     16     -15.0441      1.00000
     17     -14.6651      1.00000
     18     -14.2879      1.00000
     19     -13.7106      1.00000
     20     -13.4620      1.00000
     21     -13.4586      1.00000
     22     -13.3574      1.00000
     23     -12.9124      1.00000
     24     -12.1987      1.00000
     25     -11.5869      1.00000
     26     -11.4089      1.00000
     27     -10.1517      1.00000
     28     -10.1351      1.00000
     29     -10.0946      1.00000
     30     -10.0787      1.00000
     31     -10.0363      1.00000
     32      -9.2346      1.00000
     33      -9.2309      1.00000
     34      -8.9193      1.00000
     35      -8.6659      1.00000
     36      -8.6299      1.00000
     37      -8.4721      1.00000
     38      -8.0226      1.00000
     39      -7.9400      1.00000
     40      -7.8424      1.00000
     41      -7.7417      1.00000
     42      -7.5599      1.00000
     43      -6.4992      1.00000
     44      -6.4568      1.00000
     45      -5.5380      1.00000
     46      -5.5164      1.00000
     47      -5.5018      1.00000
     48      -5.3628      1.00000
     49      -4.6357      1.00000
     50      -2.8465      0.00000
     51      -1.5965      0.00000
     52      -1.5409      0.00000
     53      -0.9930      0.00000
     54      -0.8636      0.00000
     55      -0.5924      0.00000
     56       0.2452      0.00000
     57       0.6254      0.00000
     58       0.8014      0.00000
     59       1.0662      0.00000
     60       1.3215      0.00000
     61       1.6096      0.00000

 k-point    99 :       0.0000    0.4737    0.4737
  band No.  band energies     occupation 
      1     -31.9370      1.00000
      2     -29.7652      1.00000
      3     -29.7603      1.00000
      4     -21.9950      1.00000
      5     -20.3685      1.00000
      6     -20.2729      1.00000
      7     -19.3042      1.00000
      8     -19.0443      1.00000
      9     -18.6288      1.00000
     10     -18.3678      1.00000
     11     -17.9650      1.00000
     12     -17.2047      1.00000
     13     -16.7699      1.00000
     14     -16.5710      1.00000
     15     -15.6344      1.00000
     16     -15.0884      1.00000
     17     -14.6073      1.00000
     18     -14.3411      1.00000
     19     -13.7106      1.00000
     20     -13.4620      1.00000
     21     -13.4586      1.00000
     22     -13.3615      1.00000
     23     -12.9061      1.00000
     24     -12.1980      1.00000
     25     -11.5836      1.00000
     26     -11.4034      1.00000
     27     -10.1518      1.00000
     28     -10.1361      1.00000
     29     -10.0961      1.00000
     30     -10.0799      1.00000
     31     -10.0359      1.00000
     32      -9.2347      1.00000
     33      -9.2309      1.00000
     34      -8.9270      1.00000
     35      -8.6671      1.00000
     36      -8.6319      1.00000
     37      -8.4723      1.00000
     38      -8.0220      1.00000
     39      -7.9413      1.00000
     40      -7.8425      1.00000
     41      -7.7398      1.00000
     42      -7.5466      1.00000
     43      -6.4705      1.00000
     44      -6.4633      1.00000
     45      -5.5441      1.00000
     46      -5.5095      1.00000
     47      -5.5078      1.00000
     48      -5.3965      1.00000
     49      -4.6409      1.00000
     50      -2.8400      0.00000
     51      -1.5517      0.00000
     52      -1.4826      0.00000
     53      -0.9930      0.00000
     54      -0.9815      0.00000
     55      -0.5840      0.00000
     56       0.2768      0.00000
     57       0.6661      0.00000
     58       0.7669      0.00000
     59       1.0757      0.00000
     60       1.2964      0.00000
     61       1.6137      0.00000

 k-point   100 :       0.0000    0.5000    0.5000
  band No.  band energies     occupation 
      1     -31.9370      1.00000
      2     -29.7652      1.00000
      3     -29.7603      1.00000
      4     -21.9949      1.00000
      5     -20.3694      1.00000
      6     -20.2732      1.00000
      7     -19.3041      1.00000
      8     -19.0409      1.00000
      9     -18.6222      1.00000
     10     -18.3726      1.00000
     11     -17.9730      1.00000
     12     -17.2050      1.00000
     13     -16.7699      1.00000
     14     -16.5705      1.00000
     15     -15.6183      1.00000
     16     -15.1048      1.00000
     17     -14.5817      1.00000
     18     -14.3652      1.00000
     19     -13.7106      1.00000
     20     -13.4620      1.00000
     21     -13.4586      1.00000
     22     -13.3629      1.00000
     23     -12.9040      1.00000
     24     -12.1978      1.00000
     25     -11.5824      1.00000
     26     -11.4016      1.00000
     27     -10.1518      1.00000
     28     -10.1364      1.00000
     29     -10.0967      1.00000
     30     -10.0803      1.00000
     31     -10.0357      1.00000
     32      -9.2347      1.00000
     33      -9.2309      1.00000
     34      -8.9296      1.00000
     35      -8.6675      1.00000
     36      -8.6326      1.00000
     37      -8.4723      1.00000
     38      -8.0218      1.00000
     39      -7.9417      1.00000
     40      -7.8425      1.00000
     41      -7.7392      1.00000
     42      -7.5421      1.00000
     43      -6.4750      1.00000
     44      -6.4507      1.00000
     45      -5.5580      1.00000
     46      -5.5059      1.00000
     47      -5.4948      1.00000
     48      -5.4128      1.00000
     49      -4.6426      1.00000
     50      -2.8378      0.00000
     51      -1.5553      0.00000
     52      -1.4299      0.00000
     53      -1.0356      0.00000
     54      -0.9929      0.00000
     55      -0.5812      0.00000
     56       0.2881      0.00000
     57       0.6913      0.00000
     58       0.7434      0.00000
     59       1.0805      0.00000
     60       1.2870      0.00000
     61       1.6057      0.00000

 k-point   101 :       0.5000    0.0000    0.5000
  band No.  band energies     occupation 
      1     -31.9370      1.00000
      2     -29.7652      1.00000
      3     -29.7602      1.00000
      4     -21.9948      1.00000
      5     -20.3711      1.00000
      6     -20.2713      1.00000
      7     -19.3066      1.00000
      8     -19.0393      1.00000
      9     -18.6213      1.00000
     10     -18.3708      1.00000
     11     -17.9730      1.00000
     12     -17.2095      1.00000
     13     -16.7702      1.00000
     14     -16.5695      1.00000
     15     -15.6155      1.00000
     16     -15.1042      1.00000
     17     -14.5843      1.00000
     18     -14.3631      1.00000
     19     -13.7107      1.00000
     20     -13.4623      1.00000
     21     -13.4580      1.00000
     22     -13.3643      1.00000
     23     -12.9040      1.00000
     24     -12.1980      1.00000
     25     -11.5854      1.00000
     26     -11.3986      1.00000
     27     -10.1571      1.00000
     28     -10.1368      1.00000
     29     -10.0941      1.00000
     30     -10.0714      1.00000
     31     -10.0400      1.00000
     32      -9.2342      1.00000
     33      -9.2308      1.00000
     34      -8.9422      1.00000
     35      -8.6561      1.00000
     36      -8.6388      1.00000
     37      -8.4538      1.00000
     38      -8.0395      1.00000
     39      -7.9367      1.00000
     40      -7.8515      1.00000
     41      -7.7372      1.00000
     42      -7.5389      1.00000
     43      -6.4722      1.00000
     44      -6.4473      1.00000
     45      -5.5565      1.00000
     46      -5.5065      1.00000
     47      -5.4985      1.00000
     48      -5.4071      1.00000
     49      -4.6494      1.00000
     50      -2.8390      0.00000
     51      -1.5584      0.00000
     52      -1.4290      0.00000
     53      -1.0327      0.00000
     54      -0.9971      0.00000
     55      -0.5736      0.00000
     56       0.2918      0.00000
     57       0.6606      0.00000
     58       0.7794      0.00000
     59       1.0777      0.00000
     60       1.2813      0.00000
     61       1.6285      0.00000

 k-point   102 :       0.4737    0.0000    0.4737
  band No.  band energies     occupation 
      1     -31.9370      1.00000
      2     -29.7652      1.00000
      3     -29.7602      1.00000
      4     -21.9949      1.00000
      5     -20.3702      1.00000
      6     -20.2709      1.00000
      7     -19.3067      1.00000
      8     -19.0427      1.00000
      9     -18.6279      1.00000
     10     -18.3661      1.00000
     11     -17.9650      1.00000
     12     -17.2092      1.00000
     13     -16.7702      1.00000
     14     -16.5700      1.00000
     15     -15.6317      1.00000
     16     -15.0877      1.00000
     17     -14.6095      1.00000
     18     -14.3395      1.00000
     19     -13.7107      1.00000
     20     -13.4623      1.00000
     21     -13.4580      1.00000
     22     -13.3629      1.00000
     23     -12.9061      1.00000
     24     -12.1983      1.00000
     25     -11.5866      1.00000
     26     -11.4004      1.00000
     27     -10.1571      1.00000
     28     -10.1364      1.00000
     29     -10.0934      1.00000
     30     -10.0709      1.00000
     31     -10.0404      1.00000
     32      -9.2342      1.00000
     33      -9.2308      1.00000
     34      -8.9397      1.00000
     35      -8.6560      1.00000
     36      -8.6378      1.00000
     37      -8.4538      1.00000
     38      -8.0397      1.00000
     39      -7.9363      1.00000
     40      -7.8514      1.00000
     41      -7.7378      1.00000
     42      -7.5434      1.00000
     43      -6.4676      1.00000
     44      -6.4600      1.00000
     45      -5.5427      1.00000
     46      -5.5120      1.00000
     47      -5.5082      1.00000
     48      -5.3920      1.00000
     49      -4.6477      1.00000
     50      -2.8412      0.00000
     51      -1.5548      0.00000
     52      -1.4815      0.00000
     53      -0.9972      0.00000
     54      -0.9789      0.00000
     55      -0.5765      0.00000
     56       0.2808      0.00000
     57       0.6455      0.00000
     58       0.7929      0.00000
     59       1.0731      0.00000
     60       1.2902      0.00000
     61       1.6364      0.00000

 k-point   103 :       0.4474    0.0000    0.4474
  band No.  band energies     occupation 
      1     -31.9370      1.00000
      2     -29.7652      1.00000
      3     -29.7602      1.00000
      4     -21.9952      1.00000
      5     -20.3675      1.00000
      6     -20.2698      1.00000
      7     -19.3071      1.00000
      8     -19.0527      1.00000
      9     -18.6467      1.00000
     10     -18.3522      1.00000
     11     -17.9418      1.00000
     12     -17.2083      1.00000
     13     -16.7702      1.00000
     14     -16.5714      1.00000
     15     -15.6752      1.00000
     16     -15.0433      1.00000
     17     -14.6666      1.00000
     18     -14.2870      1.00000
     19     -13.7107      1.00000
     20     -13.4622      1.00000
     21     -13.4580      1.00000
     22     -13.3588      1.00000
     23     -12.9123      1.00000
     24     -12.1989      1.00000
     25     -11.5899      1.00000
     26     -11.4058      1.00000
     27     -10.1572      1.00000
     28     -10.1355      1.00000
     29     -10.0912      1.00000
     30     -10.0695      1.00000
     31     -10.0417      1.00000
     32      -9.2342      1.00000
     33      -9.2308      1.00000
     34      -8.9319      1.00000
     35      -8.6558      1.00000
     36      -8.6348      1.00000
     37      -8.4536      1.00000
     38      -8.0402      1.00000
     39      -7.9352      1.00000
     40      -7.8513      1.00000
     41      -7.7397      1.00000
     42      -7.5566      1.00000
     43      -6.4958      1.00000
     44      -6.4542      1.00000
     45      -5.5393      1.00000
     46      -5.5184      1.00000
     47      -5.4988      1.00000
     48      -5.3596      1.00000
     49      -4.6424      1.00000
     50      -2.8477      0.00000
     51      -1.5951      0.00000
     52      -1.5440      0.00000
     53      -0.9972      0.00000
     54      -0.8614      0.00000
     55      -0.5848      0.00000
     56       0.2487      0.00000
     57       0.6130      0.00000
     58       0.8188      0.00000
     59       1.0639      0.00000
     60       1.3151      0.00000
     61       1.6616      0.00000

 k-point   104 :       0.4211    0.0000    0.4211
  band No.  band energies     occupation 
      1     -31.9370      1.00000
      2     -29.7652      1.00000
      3     -29.7603      1.00000
      4     -21.9956      1.00000
      5     -20.3631      1.00000
      6     -20.2680      1.00000
      7     -19.3078      1.00000
      8     -19.0683      1.00000
      9     -18.6752      1.00000
     10     -18.3302      1.00000
     11     -17.9060      1.00000
     12     -17.2067      1.00000
     13     -16.7702      1.00000
     14     -16.5737      1.00000
     15     -15.7363      1.00000
     16     -14.9807      1.00000
     17     -14.7361      1.00000
     18     -14.2255      1.00000
     19     -13.7107      1.00000
     20     -13.4622      1.00000
     21     -13.4580      1.00000
     22     -13.3518      1.00000
     23     -12.9228      1.00000
     24     -12.1999      1.00000
     25     -11.5953      1.00000
     26     -11.4148      1.00000
     27     -10.1573      1.00000
     28     -10.1342      1.00000
     29     -10.0874      1.00000
     30     -10.0677      1.00000
     31     -10.0431      1.00000
     32      -9.2342      1.00000
     33      -9.2308      1.00000
     34      -8.9192      1.00000
     35      -8.6555      1.00000
     36      -8.6296      1.00000
     37      -8.4534      1.00000
     38      -8.0411      1.00000
     39      -7.9334      1.00000
     40      -7.8511      1.00000
     41      -7.7428      1.00000
     42      -7.5778      1.00000
     43      -6.5494      1.00000
     44      -6.4327      1.00000
     45      -5.5695      1.00000
     46      -5.5270      1.00000
     47      -5.4396      1.00000
     48      -5.3211      1.00000
     49      -4.6336      1.00000
     50      -2.8586      0.00000
     51      -1.7283      0.00000
     52      -1.5264      0.00000
     53      -0.9973      0.00000
     54      -0.7222      0.00000
     55      -0.5980      0.00000
     56       0.1995      0.00000
     57       0.5750      0.00000
     58       0.8416      0.00000
     59       1.0600      0.00000
     60       1.3480      0.00000
     61       1.6458      0.00000

 k-point   105 :       0.3947    0.0000    0.3947
  band No.  band energies     occupation 
      1     -31.9370      1.00000
      2     -29.7652      1.00000
      3     -29.7603      1.00000
      4     -21.9962      1.00000
      5     -20.3570      1.00000
      6     -20.2655      1.00000
      7     -19.3089      1.00000
      8     -19.0884      1.00000
      9     -18.7106      1.00000
     10     -18.3011      1.00000
     11     -17.8602      1.00000
     12     -17.2044      1.00000
     13     -16.7702      1.00000
     14     -16.5771      1.00000
     15     -15.8075      1.00000
     16     -14.9074      1.00000
     17     -14.8102      1.00000
     18     -14.1627      1.00000
     19     -13.7107      1.00000
     20     -13.4622      1.00000
     21     -13.4580      1.00000
     22     -13.3418      1.00000
     23     -12.9374      1.00000
     24     -12.2014      1.00000
     25     -11.6026      1.00000
     26     -11.4271      1.00000
     27     -10.1575      1.00000
     28     -10.1327      1.00000
     29     -10.0820      1.00000
     30     -10.0666      1.00000
     31     -10.0437      1.00000
     32      -9.2342      1.00000
     33      -9.2308      1.00000
     34      -8.9017      1.00000
     35      -8.6553      1.00000
     36      -8.6222      1.00000
     37      -8.4530      1.00000
     38      -8.0423      1.00000
     39      -7.9309      1.00000
     40      -7.8508      1.00000
     41      -7.7470      1.00000
     42      -7.6057      1.00000
     43      -6.6153      1.00000
     44      -6.4046      1.00000
     45      -5.5992      1.00000
     46      -5.5410      1.00000
     47      -5.3636      1.00000
     48      -5.2800      1.00000
     49      -4.6210      1.00000
     50      -2.8740      0.00000
     51      -1.8674      0.00000
     52      -1.5023      0.00000
     53      -0.9974      0.00000
     54      -0.6205      0.00000
     55      -0.5698      0.00000
     56       0.1381      0.00000
     57       0.5365      0.00000
     58       0.8514      0.00000
     59       1.0701      0.00000
     60       1.3825      0.00000
     61       1.6438      0.00000

 k-point   106 :       0.3684    0.0000    0.3684
  band No.  band energies     occupation 
      1     -31.9370      1.00000
      2     -29.7652      1.00000
      3     -29.7603      1.00000
      4     -21.9969      1.00000
      5     -20.3494      1.00000
      6     -20.2624      1.00000
      7     -19.3103      1.00000
      8     -19.1117      1.00000
      9     -18.7504      1.00000
     10     -18.2664      1.00000
     11     -17.8071      1.00000
     12     -17.2014      1.00000
     13     -16.7703      1.00000
     14     -16.5816      1.00000
     15     -15.8841      1.00000
     16     -14.8861      1.00000
     17     -14.8279      1.00000
     18     -14.1018      1.00000
     19     -13.7106      1.00000
     20     -13.4622      1.00000
     21     -13.4580      1.00000
     22     -13.3285      1.00000
     23     -12.9563      1.00000
     24     -12.2031      1.00000
     25     -11.6114      1.00000
     26     -11.4427      1.00000
     27     -10.1577      1.00000
     28     -10.1313      1.00000
     29     -10.0754      1.00000
     30     -10.0672      1.00000
     31     -10.0419      1.00000
     32      -9.2342      1.00000
     33      -9.2308      1.00000
     34      -8.8796      1.00000
     35      -8.6551      1.00000
     36      -8.6127      1.00000
     37      -8.4526      1.00000
     38      -8.0441      1.00000
     39      -7.9279      1.00000
     40      -7.8504      1.00000
     41      -7.7523      1.00000
     42      -7.6393      1.00000
     43      -6.6887      1.00000
     44      -6.3711      1.00000
     45      -5.6276      1.00000
     46      -5.5585      1.00000
     47      -5.2768      1.00000
     48      -5.2375      1.00000
     49      -4.6045      1.00000
     50      -2.8939      0.00000
     51      -2.0081      0.00000
     52      -1.4724      0.00000
     53      -0.9975      0.00000
     54      -0.6417      0.00000
     55      -0.4196      0.00000
     56       0.0689      0.00000
     57       0.4978      0.00000
     58       0.8462      0.00000
     59       1.0962      0.00000
     60       1.4130      0.00000
     61       1.6136      0.00000

 k-point   107 :       0.3421    0.0000    0.3421
  band No.  band energies     occupation 
      1     -31.9370      1.00000
      2     -29.7652      1.00000
      3     -29.7603      1.00000
      4     -21.9977      1.00000
      5     -20.3403      1.00000
      6     -20.2588      1.00000
      7     -19.3121      1.00000
      8     -19.1372      1.00000
      9     -18.7924      1.00000
     10     -18.2273      1.00000
     11     -17.7486      1.00000
     12     -17.1974      1.00000
     13     -16.7703      1.00000
     14     -16.5875      1.00000
     15     -15.9638      1.00000
     16     -14.9623      1.00000
     17     -14.7449      1.00000
     18     -14.0443      1.00000
     19     -13.7106      1.00000
     20     -13.4621      1.00000
     21     -13.4580      1.00000
     22     -13.3117      1.00000
     23     -12.9795      1.00000
     24     -12.2052      1.00000
     25     -11.6215      1.00000
     26     -11.4611      1.00000
     27     -10.1581      1.00000
     28     -10.1300      1.00000
     29     -10.0727      1.00000
     30     -10.0648      1.00000
     31     -10.0374      1.00000
     32      -9.2342      1.00000
     33      -9.2308      1.00000
     34      -8.8532      1.00000
     35      -8.6550      1.00000
     36      -8.6009      1.00000
     37      -8.4519      1.00000
     38      -8.0464      1.00000
     39      -7.9244      1.00000
     40      -7.8499      1.00000
     41      -7.7585      1.00000
     42      -7.6770      1.00000
     43      -6.7665      1.00000
     44      -6.3339      1.00000
     45      -5.6540      1.00000
     46      -5.5789      1.00000
     47      -5.1947      1.00000
     48      -5.1823      1.00000
     49      -4.5840      1.00000
     50      -2.9186      0.00000
     51      -2.1484      0.00000
     52      -1.4374      0.00000
     53      -0.9977      0.00000
     54      -0.6684      0.00000
     55      -0.2651      0.00000
     56      -0.0049      0.00000
     57       0.4611      0.00000
     58       0.8308      0.00000
     59       1.1332      0.00000
     60       1.4308      0.00000
     61       1.5976      0.00000

 k-point   108 :       0.3158    0.0000    0.3158
  band No.  band energies     occupation 
      1     -31.9370      1.00000
      2     -29.7652      1.00000
      3     -29.7603      1.00000
      4     -21.9987      1.00000
      5     -20.3300      1.00000
      6     -20.2546      1.00000
      7     -19.3144      1.00000
      8     -19.1637      1.00000
      9     -18.8352      1.00000
     10     -18.1849      1.00000
     11     -17.6862      1.00000
     12     -17.1923      1.00000
     13     -16.7703      1.00000
     14     -16.5947      1.00000
     15     -16.0449      1.00000
     16     -15.0378      1.00000
     17     -14.6598      1.00000
     18     -13.9913      1.00000
     19     -13.7106      1.00000
     20     -13.4621      1.00000
     21     -13.4580      1.00000
     22     -13.2913      1.00000
     23     -13.0069      1.00000
     24     -12.2074      1.00000
     25     -11.6324      1.00000
     26     -11.4820      1.00000
     27     -10.1587      1.00000
     28     -10.1290      1.00000
     29     -10.0771      1.00000
     30     -10.0557      1.00000
     31     -10.0310      1.00000
     32      -9.2342      1.00000
     33      -9.2308      1.00000
     34      -8.8230      1.00000
     35      -8.6549      1.00000
     36      -8.5870      1.00000
     37      -8.4512      1.00000
     38      -8.0494      1.00000
     39      -7.9205      1.00000
     40      -7.8492      1.00000
     41      -7.7661      1.00000
     42      -7.7176      1.00000
     43      -6.8463      1.00000
     44      -6.2943      1.00000
     45      -5.6785      1.00000
     46      -5.6014      1.00000
     47      -5.1516      1.00000
     48      -5.0832      1.00000
     49      -4.5592      1.00000
     50      -2.9482      0.00000
     51      -2.2873      0.00000
     52      -1.3982      0.00000
     53      -0.9979      0.00000
     54      -0.6984      0.00000
     55      -0.1098      0.00000
     56      -0.0802      0.00000
     57       0.4263      0.00000
     58       0.8107      0.00000
     59       1.1746      0.00000
     60       1.4315      0.00000
     61       1.6001      0.00000

 k-point   109 :       0.2895    0.0000    0.2895
  band No.  band energies     occupation 
      1     -31.9370      1.00000
      2     -29.7652      1.00000
      3     -29.7603      1.00000
      4     -21.9996      1.00000
      5     -20.3185      1.00000
      6     -20.2500      1.00000
      7     -19.3172      1.00000
      8     -19.1905      1.00000
      9     -18.8775      1.00000
     10     -18.1404      1.00000
     11     -17.6210      1.00000
     12     -17.1860      1.00000
     13     -16.7703      1.00000
     14     -16.6037      1.00000
     15     -16.1264      1.00000
     16     -15.1117      1.00000
     17     -14.5736      1.00000
     18     -13.9436      1.00000
     19     -13.7106      1.00000
     20     -13.4621      1.00000
     21     -13.4580      1.00000
     22     -13.2672      1.00000
     23     -13.0386      1.00000
     24     -12.2098      1.00000
     25     -11.6439      1.00000
     26     -11.5052      1.00000
     27     -10.1594      1.00000
     28     -10.1281      1.00000
     29     -10.0828      1.00000
     30     -10.0451      1.00000
     31     -10.0234      1.00000
     32      -9.2341      1.00000
     33      -9.2308      1.00000
     34      -8.7892      1.00000
     35      -8.6548      1.00000
     36      -8.5710      1.00000
     37      -8.4502      1.00000
     38      -8.0532      1.00000
     39      -7.9164      1.00000
     40      -7.8483      1.00000
     41      -7.7779      1.00000
     42      -7.7567      1.00000
     43      -6.9263      1.00000
     44      -6.2537      1.00000
     45      -5.7007      1.00000
     46      -5.6255      1.00000
     47      -5.1091      1.00000
     48      -4.9805      1.00000
     49      -4.5298      1.00000
     50      -2.9828      0.00000
     51      -2.4242      0.00000
     52      -1.3558      0.00000
     53      -0.9980      0.00000
     54      -0.7308      0.00000
     55      -0.1549      0.00000
     56       0.0458      0.00000
     57       0.3938      0.00000
     58       0.7890      0.00000
     59       1.2110      0.00000
     60       1.4240      0.00000
     61       1.6179      0.00000

 k-point   110 :       0.2632    0.0000    0.2632
  band No.  band energies     occupation 
      1     -31.9370      1.00000
      2     -29.7652      1.00000
      3     -29.7603      1.00000
      4     -22.0007      1.00000
      5     -20.3062      1.00000
      6     -20.2451      1.00000
      7     -19.3206      1.00000
      8     -19.2170      1.00000
      9     -18.9183      1.00000
     10     -18.0946      1.00000
     11     -17.5540      1.00000
     12     -17.1781      1.00000
     13     -16.7703      1.00000
     14     -16.6146      1.00000
     15     -16.2078      1.00000
     16     -15.1835      1.00000
     17     -14.4869      1.00000
     18     -13.9016      1.00000
     19     -13.7106      1.00000
     20     -13.4620      1.00000
     21     -13.4580      1.00000
     22     -13.2398      1.00000
     23     -13.0746      1.00000
     24     -12.2124      1.00000
     25     -11.6555      1.00000
     26     -11.5300      1.00000
     27     -10.1603      1.00000
     28     -10.1274      1.00000
     29     -10.0888      1.00000
     30     -10.0340      1.00000
     31     -10.0152      1.00000
     32      -9.2341      1.00000
     33      -9.2308      1.00000
     34      -8.7525      1.00000
     35      -8.6547      1.00000
     36      -8.5528      1.00000
     37      -8.4488      1.00000
     38      -8.0581      1.00000
     39      -7.9122      1.00000
     40      -7.8473      1.00000
     41      -7.8117      1.00000
     42      -7.7757      1.00000
     43      -7.0052      1.00000
     44      -6.2131      1.00000
     45      -5.7208      1.00000
     46      -5.6504      1.00000
     47      -5.0677      1.00000
     48      -4.8757      1.00000
     49      -4.4958      1.00000
     50      -3.0224      0.00000
     51      -2.5586      0.00000
     52      -1.3112      0.00000
     53      -0.9982      0.00000
     54      -0.7645      0.00000
     55      -0.2273      0.00000
     56       0.2023      0.00000
     57       0.3636      0.00000
     58       0.7674      0.00000
     59       1.2359      0.00000
     60       1.4241      0.00000
     61       1.6416      0.00000

 k-point   111 :       0.2368    0.0000    0.2368
  band No.  band energies     occupation 
      1     -31.9370      1.00000
      2     -29.7652      1.00000
      3     -29.7603      1.00000
      4     -22.0017      1.00000
      5     -20.2933      1.00000
      6     -20.2401      1.00000
      7     -19.3248      1.00000
      8     -19.2425      1.00000
      9     -18.9568      1.00000
     10     -18.0484      1.00000
     11     -17.4857      1.00000
     12     -17.1683      1.00000
     13     -16.7703      1.00000
     14     -16.6277      1.00000
     15     -16.2884      1.00000
     16     -15.2522      1.00000
     17     -14.4003      1.00000
     18     -13.8654      1.00000
     19     -13.7106      1.00000
     20     -13.4620      1.00000
     21     -13.4580      1.00000
     22     -13.2095      1.00000
     23     -13.1147      1.00000
     24     -12.2149      1.00000
     25     -11.6670      1.00000
     26     -11.5560      1.00000
     27     -10.1613      1.00000
     28     -10.1268      1.00000
     29     -10.0948      1.00000
     30     -10.0227      1.00000
     31     -10.0067      1.00000
     32      -9.2341      1.00000
     33      -9.2308      1.00000
     34      -8.7133      1.00000
     35      -8.6547      1.00000
     36      -8.5326      1.00000
     37      -8.4470      1.00000
     38      -8.0643      1.00000
     39      -7.9082      1.00000
     40      -7.8566      1.00000
     41      -7.8458      1.00000
     42      -7.7848      1.00000
     43      -7.0819      1.00000
     44      -6.1737      1.00000
     45      -5.7388      1.00000
     46      -5.6755      1.00000
     47      -5.0280      1.00000
     48      -4.7697      1.00000
     49      -4.4569      1.00000
     50      -3.0672      0.00000
     51      -2.6899      0.00000
     52      -1.2656      0.00000
     53      -0.9984      0.00000
     54      -0.7987      0.00000
     55      -0.2959      0.00000
     56       0.3360      0.00000
     57       0.3547      0.00000
     58       0.7469      0.00000
     59       1.2415      0.00000
     60       1.4419      0.00000
     61       1.6679      0.00000

 k-point   112 :       0.2105    0.0000    0.2105
  band No.  band energies     occupation 
      1     -31.9370      1.00000
      2     -29.7652      1.00000
      3     -29.7603      1.00000
      4     -22.0027      1.00000
      5     -20.2801      1.00000
      6     -20.2349      1.00000
      7     -19.3297      1.00000
      8     -19.2665      1.00000
      9     -18.9922      1.00000
     10     -18.0029      1.00000
     11     -17.4168      1.00000
     12     -17.1562      1.00000
     13     -16.7703      1.00000
     14     -16.6435      1.00000
     15     -16.3679      1.00000
     16     -15.3172      1.00000
     17     -14.3140      1.00000
     18     -13.8348      1.00000
     19     -13.7106      1.00000
     20     -13.4620      1.00000
     21     -13.4581      1.00000
     22     -13.1773      1.00000
     23     -13.1589      1.00000
     24     -12.2174      1.00000
     25     -11.6780      1.00000
     26     -11.5826      1.00000
     27     -10.1626      1.00000
     28     -10.1264      1.00000
     29     -10.1005      1.00000
     30     -10.0115      1.00000
     31      -9.9982      1.00000
     32      -9.2341      1.00000
     33      -9.2308      1.00000
     34      -8.6725      1.00000
     35      -8.6546      1.00000
     36      -8.5104      1.00000
     37      -8.4444      1.00000
     38      -8.0721      1.00000
     39      -7.9046      1.00000
     40      -7.9024      1.00000
     41      -7.8445      1.00000
     42      -7.7929      1.00000
     43      -7.1553      1.00000
     44      -6.1364      1.00000
     45      -5.7547      1.00000
     46      -5.7002      1.00000
     47      -4.9904      1.00000
     48      -4.6634      1.00000
     49      -4.4130      1.00000
     50      -3.1170      0.00000
     51      -2.8179      0.00000
     52      -1.2201      0.00000
     53      -0.9986      0.00000
     54      -0.8325      0.00000
     55      -0.3596      0.00000
     56       0.3111      0.00000
     57       0.5167      0.00000
     58       0.7281      0.00000
     59       1.2322      0.00000
     60       1.4750      0.00000
     61       1.6923      0.00000

 k-point   113 :       0.1842    0.0000    0.1842
  band No.  band energies     occupation 
      1     -31.9370      1.00000
      2     -29.7651      1.00000
      3     -29.7603      1.00000
      4     -22.0037      1.00000
      5     -20.2670      1.00000
      6     -20.2299      1.00000
      7     -19.3353      1.00000
      8     -19.2887      1.00000
      9     -19.0240      1.00000
     10     -17.9590      1.00000
     11     -17.3480      1.00000
     12     -17.1413      1.00000
     13     -16.7704      1.00000
     14     -16.6623      1.00000
     15     -16.4458      1.00000
     16     -15.3775      1.00000
     17     -14.2285      1.00000
     18     -13.8095      1.00000
     19     -13.7106      1.00000
     20     -13.4619      1.00000
     21     -13.4581      1.00000
     22     -13.2070      1.00000
     23     -13.1441      1.00000
     24     -12.2198      1.00000
     25     -11.6883      1.00000
     26     -11.6090      1.00000
     27     -10.1640      1.00000
     28     -10.1260      1.00000
     29     -10.1056      1.00000
     30     -10.0009      1.00000
     31      -9.9901      1.00000
     32      -9.2340      1.00000
     33      -9.2307      1.00000
     34      -8.6547      1.00000
     35      -8.6308      1.00000
     36      -8.4862      1.00000
     37      -8.4404      1.00000
     38      -8.0819      1.00000
     39      -7.9487      1.00000
     40      -7.9010      1.00000
     41      -7.8428      1.00000
     42      -7.8003      1.00000
     43      -7.2243      1.00000
     44      -6.1018      1.00000
     45      -5.7685      1.00000
     46      -5.7237      1.00000
     47      -4.9556      1.00000
     48      -4.5578      1.00000
     49      -4.3642      1.00000
     50      -3.1716      0.00000
     51      -2.9418      0.00000
     52      -1.1761      0.00000
     53      -0.9988      0.00000
     54      -0.8649      0.00000
     55      -0.4177      0.00000
     56       0.2889      0.00000
     57       0.6610      0.00000
     58       0.7112      0.00000
     59       1.2154      0.00000
     60       1.5143      0.00000
     61       1.7184      0.00000

 k-point   114 :       0.1579    0.0000    0.1579
  band No.  band energies     occupation 
      1     -31.9370      1.00000
      2     -29.7651      1.00000
      3     -29.7602      1.00000
      4     -22.0046      1.00000
      5     -20.2544      1.00000
      6     -20.2251      1.00000
      7     -19.3415      1.00000
      8     -19.3087      1.00000
      9     -19.0518      1.00000
     10     -17.9178      1.00000
     11     -17.2796      1.00000
     12     -17.1230      1.00000
     13     -16.7705      1.00000
     14     -16.6845      1.00000
     15     -16.5218      1.00000
     16     -15.4323      1.00000
     17     -14.1441      1.00000
     18     -13.7889      1.00000
     19     -13.7106      1.00000
     20     -13.4619      1.00000
     21     -13.4581      1.00000
     22     -13.2588      1.00000
     23     -13.1113      1.00000
     24     -12.2220      1.00000
     25     -11.6975      1.00000
     26     -11.6346      1.00000
     27     -10.1655      1.00000
     28     -10.1257      1.00000
     29     -10.1100      1.00000
     30      -9.9911      1.00000
     31      -9.9825      1.00000
     32      -9.2340      1.00000
     33      -9.2307      1.00000
     34      -8.6546      1.00000
     35      -8.5903      1.00000
     36      -8.4601      1.00000
     37      -8.4340      1.00000
     38      -8.0943      1.00000
     39      -7.9945      1.00000
     40      -7.8981      1.00000
     41      -7.8410      1.00000
     42      -7.8072      1.00000
     43      -7.2878      1.00000
     44      -6.0708      1.00000
     45      -5.7802      1.00000
     46      -5.7454      1.00000
     47      -4.9241      1.00000
     48      -4.4537      1.00000
     49      -4.3109      1.00000
     50      -3.2305      0.00000
     51      -3.0610      0.00000
     52      -1.1347      0.00000
     53      -0.9989      0.00000
     54      -0.8951      0.00000
     55      -0.4692      0.00000
     56       0.2696      0.00000
     57       0.6963      0.00000
     58       0.8874      0.00000
     59       1.1972      0.00000
     60       1.5547      0.00000
     61       1.7561      0.00000

 k-point   115 :       0.1316    0.0000    0.1316
  band No.  band energies     occupation 
      1     -31.9370      1.00000
      2     -29.7651      1.00000
      3     -29.7602      1.00000
      4     -22.0054      1.00000
      5     -20.2426      1.00000
      6     -20.2207      1.00000
      7     -19.3482      1.00000
      8     -19.3262      1.00000
      9     -19.0751      1.00000
     10     -17.8804      1.00000
     11     -17.2123      1.00000
     12     -17.1007      1.00000
     13     -16.7707      1.00000
     14     -16.7106      1.00000
     15     -16.5954      1.00000
     16     -15.4807      1.00000
     17     -14.0613      1.00000
     18     -13.7726      1.00000
     19     -13.7106      1.00000
     20     -13.4619      1.00000
     21     -13.4581      1.00000
     22     -13.3140      1.00000
     23     -13.0802      1.00000
     24     -12.2240      1.00000
     25     -11.7057      1.00000
     26     -11.6584      1.00000
     27     -10.1670      1.00000
     28     -10.1255      1.00000
     29     -10.1138      1.00000
     30      -9.9823      1.00000
     31      -9.9756      1.00000
     32      -9.2340      1.00000
     33      -9.2307      1.00000
     34      -8.6546      1.00000
     35      -8.5534      1.00000
     36      -8.4325      1.00000
     37      -8.4229      1.00000
     38      -8.1097      1.00000
     39      -8.0395      1.00000
     40      -7.8958      1.00000
     41      -7.8391      1.00000
     42      -7.8134      1.00000
     43      -7.3446      1.00000
     44      -6.0437      1.00000
     45      -5.7901      1.00000
     46      -5.7648      1.00000
     47      -4.8964      1.00000
     48      -4.3526      1.00000
     49      -4.2536      1.00000
     50      -3.2930      0.00000
     51      -3.1745      0.00000
     52      -1.0971      0.00000
     53      -0.9990      0.00000
     54      -0.9223      0.00000
     55      -0.5136      0.00000
     56       0.2531      0.00000
     57       0.6837      0.00000
     58       1.0736      0.00000
     59       1.1799      0.00000
     60       1.6059      0.00000
     61       1.7774      0.00000

 k-point   116 :       0.1053    0.0000    0.1053
  band No.  band energies     occupation 
      1     -31.9370      1.00000
      2     -29.7651      1.00000
      3     -29.7603      1.00000
      4     -22.0061      1.00000
      5     -20.2322      1.00000
      6     -20.2169      1.00000
      7     -19.3548      1.00000
      8     -19.3409      1.00000
      9     -19.0939      1.00000
     10     -17.8478      1.00000
     11     -17.1467      1.00000
     12     -17.0738      1.00000
     13     -16.7714      1.00000
     14     -16.7405      1.00000
     15     -16.6662      1.00000
     16     -15.5219      1.00000
     17     -13.9804      1.00000
     18     -13.7600      1.00000
     19     -13.7106      1.00000
     20     -13.4619      1.00000
     21     -13.4581      1.00000
     22     -13.3722      1.00000
     23     -13.0524      1.00000
     24     -12.2257      1.00000
     25     -11.7125      1.00000
     26     -11.6796      1.00000
     27     -10.1685      1.00000
     28     -10.1253      1.00000
     29     -10.1167      1.00000
     30      -9.9749      1.00000
     31      -9.9697      1.00000
     32      -9.2340      1.00000
     33      -9.2307      1.00000
     34      -8.6546      1.00000
     35      -8.5240      1.00000
     36      -8.4060      1.00000
     37      -8.4015      1.00000
     38      -8.1286      1.00000
     39      -8.0831      1.00000
     40      -7.8940      1.00000
     41      -7.8372      1.00000
     42      -7.8186      1.00000
     43      -7.3934      1.00000
     44      -6.0211      1.00000
     45      -5.7980      1.00000
     46      -5.7814      1.00000
     47      -4.8729      1.00000
     48      -4.2561      1.00000
     49      -4.1937      1.00000
     50      -3.3575      0.00000
     51      -3.2807      0.00000
     52      -1.0646      0.00000
     53      -0.9991      0.00000
     54      -0.9456      0.00000
     55      -0.5505      0.00000
     56       0.2396      0.00000
     57       0.6733      0.00000
     58       1.1645      0.00000
     59       1.5896      0.00000
     60       1.6407      0.00000
     61       1.7969      0.00000

 k-point   117 :       0.0789    0.0000    0.0789
  band No.  band energies     occupation 
      1     -31.9370      1.00000
      2     -29.7651      1.00000
      3     -29.7602      1.00000
      4     -22.0066      1.00000
      5     -20.2236      1.00000
      6     -20.2137      1.00000
      7     -19.3609      1.00000
      8     -19.3526      1.00000
      9     -19.1083      1.00000
     10     -17.8212      1.00000
     11     -17.0832      1.00000
     12     -17.0417      1.00000
     13     -16.7808      1.00000
     14     -16.7662      1.00000
     15     -16.7336      1.00000
     16     -15.5548      1.00000
     17     -13.9025      1.00000
     18     -13.7506      1.00000
     19     -13.7106      1.00000
     20     -13.4619      1.00000
     21     -13.4582      1.00000
     22     -13.4324      1.00000
     23     -13.0291      1.00000
     24     -12.2271      1.00000
     25     -11.7180      1.00000
     26     -11.6973      1.00000
     27     -10.1698      1.00000
     28     -10.1252      1.00000
     29     -10.1190      1.00000
     30      -9.9689      1.00000
     31      -9.9650      1.00000
     32      -9.2340      1.00000
     33      -9.2307      1.00000
     34      -8.6546      1.00000
     35      -8.5048      1.00000
     36      -8.3780      1.00000
     37      -8.3715      1.00000
     38      -8.1512      1.00000
     39      -8.1250      1.00000
     40      -7.8928      1.00000
     41      -7.8356      1.00000
     42      -7.8229      1.00000
     43      -7.4329      1.00000
     44      -6.0032      1.00000
     45      -5.8042      1.00000
     46      -5.7948      1.00000
     47      -4.8542      1.00000
     48      -4.1670      1.00000
     49      -4.1337      1.00000
     50      -3.4214      0.00000
     51      -3.3769      0.00000
     52      -1.0381      0.00000
     53      -0.9991      0.00000
     54      -0.9645      0.00000
     55      -0.5795      0.00000
     56       0.2290      0.00000
     57       0.6652      0.00000
     58       1.1523      0.00000
     59       1.6492      0.00000
     60       1.8137      0.00000
     61       1.8500      0.00000

 k-point   118 :       0.0526    0.0000    0.0526
  band No.  band energies     occupation 
      1     -31.9370      1.00000
      2     -29.7651      1.00000
      3     -29.7602      1.00000
      4     -22.0071      1.00000
      5     -20.2171      1.00000
      6     -20.2113      1.00000
      7     -19.3659      1.00000
      8     -19.3611      1.00000
      9     -19.1183      1.00000
     10     -17.8014      1.00000
     11     -17.0225      1.00000
     12     -17.0040      1.00000
     13     -16.8178      1.00000
     14     -16.7972      1.00000
     15     -16.7691      1.00000
     16     -15.5790      1.00000
     17     -13.8293      1.00000
     18     -13.7442      1.00000
     19     -13.7106      1.00000
     20     -13.4933      1.00000
     21     -13.4619      1.00000
     22     -13.4579      1.00000
     23     -13.0115      1.00000
     24     -12.2281      1.00000
     25     -11.7220      1.00000
     26     -11.7106      1.00000
     27     -10.1708      1.00000
     28     -10.1251      1.00000
     29     -10.1205      1.00000
     30      -9.9646      1.00000
     31      -9.9614      1.00000
     32      -9.2340      1.00000
     33      -9.2307      1.00000
     34      -8.6546      1.00000
     35      -8.4941      1.00000
     36      -8.3448      1.00000
     37      -8.3406      1.00000
     38      -8.1769      1.00000
     39      -8.1641      1.00000
     40      -7.8920      1.00000
     41      -7.8343      1.00000
     42      -7.8260      1.00000
     43      -7.4620      1.00000
     44      -5.9903      1.00000
     45      -5.8085      1.00000
     46      -5.8046      1.00000
     47      -4.8406      1.00000
     48      -4.0906      1.00000
     49      -4.0781      1.00000
     50      -3.4799      0.00000
     51      -3.4584      0.00000
     52      -1.0188      0.00000
     53      -0.9988      0.00000
     54      -0.9783      0.00000
     55      -0.6003      0.00000
     56       0.2215      0.00000
     57       0.6594      0.00000
     58       1.1433      0.00000
     59       1.6712      0.00000
     60       1.8242      0.00000
     61       1.9341      0.00000

 k-point   119 :       0.0263    0.0000    0.0263
  band No.  band energies     occupation 
      1     -31.9371      1.00000
      2     -29.7651      1.00000
      3     -29.7603      1.00000
      4     -22.0073      1.00000
      5     -20.2131      1.00000
      6     -20.2099      1.00000
      7     -19.3691      1.00000
      8     -19.3663      1.00000
      9     -19.1242      1.00000
     10     -17.7893      1.00000
     11     -16.9652      1.00000
     12     -16.9608      1.00000
     13     -16.8620      1.00000
     14     -16.8563      1.00000
     15     -16.7695      1.00000
     16     -15.5937      1.00000
     17     -13.7667      1.00000
     18     -13.7404      1.00000
     19     -13.7106      1.00000
     20     -13.5483      1.00000
     21     -13.4618      1.00000
     22     -13.4580      1.00000
     23     -13.0005      1.00000
     24     -12.2287      1.00000
     25     -11.7245      1.00000
     26     -11.7187      1.00000
     27     -10.1715      1.00000
     28     -10.1251      1.00000
     29     -10.1214      1.00000
     30      -9.9619      1.00000
     31      -9.9592      1.00000
     32      -9.2340      1.00000
     33      -9.2308      1.00000
     34      -8.6546      1.00000
     35      -8.4890      1.00000
     36      -8.3130      1.00000
     37      -8.3123      1.00000
     38      -8.2026      1.00000
     39      -8.1972      1.00000
     40      -7.8915      1.00000
     41      -7.8335      1.00000
     42      -7.8279      1.00000
     43      -7.4799      1.00000
     44      -5.9825      1.00000
     45      -5.8112      1.00000
     46      -5.8105      1.00000
     47      -4.8323      1.00000
     48      -4.0368      1.00000
     49      -4.0346      1.00000
     50      -3.5241      0.00000
     51      -3.5162      0.00000
     52      -1.0078      0.00000
     53      -0.9979      0.00000
     54      -0.9868      0.00000
     55      -0.6129      0.00000
     56       0.2169      0.00000
     57       0.6559      0.00000
     58       1.1378      0.00000
     59       1.6830      0.00000
     60       1.8304      0.00000
     61       1.8674      0.00000

 k-point   120 :       0.0000    0.0000    0.0000
  band No.  band energies     occupation 
      1     -31.9371      1.00000
      2     -29.7651      1.00000
      3     -29.7603      1.00000
      4     -22.0074      1.00000
      5     -20.2117      1.00000
      6     -20.2093      1.00000
      7     -19.3702      1.00000
      8     -19.3680      1.00000
      9     -19.1262      1.00000
     10     -17.7852      1.00000
     11     -16.9188      1.00000
     12     -16.9160      1.00000
     13     -16.9066      1.00000
     14     -16.9038      1.00000
     15     -16.7695      1.00000
     16     -15.5986      1.00000
     17     -13.7392      1.00000
     18     -13.7366      1.00000
     19     -13.7106      1.00000
     20     -13.5758      1.00000
     21     -13.4618      1.00000
     22     -13.4580      1.00000
     23     -12.9968      1.00000
     24     -12.2289      1.00000
     25     -11.7255      1.00000
     26     -11.7214      1.00000
     27     -10.1717      1.00000
     28     -10.1250      1.00000
     29     -10.1217      1.00000
     30      -9.9611      1.00000
     31      -9.9585      1.00000
     32      -9.2340      1.00000
     33      -9.2308      1.00000
     34      -8.6546      1.00000
     35      -8.4875      1.00000
     36      -8.2984      1.00000
     37      -8.2968      1.00000
     38      -8.2164      1.00000
     39      -8.2129      1.00000
     40      -7.8914      1.00000
     41      -7.8332      1.00000
     42      -7.8286      1.00000
     43      -7.4859      1.00000
     44      -5.9799      1.00000
     45      -5.8126      1.00000
     46      -5.8119      1.00000
     47      -4.8295      1.00000
     48      -4.0198      1.00000
     49      -4.0144      1.00000
     50      -3.5413      0.00000
     51      -3.5378      0.00000
     52      -1.0047      0.00000
     53      -0.9969      0.00000
     54      -0.9896      0.00000
     55      -0.6171      0.00000
     56       0.2154      0.00000
     57       0.6548      0.00000
     58       1.1360      0.00000
     59       1.6869      0.00000
     60       1.8302      0.00000
     61       1.8401      0.00000

 k-point   121 :       0.0000    0.0000    0.0000
  band No.  band energies     occupation 
      1     -31.9371      1.00000
      2     -29.7651      1.00000
      3     -29.7603      1.00000
      4     -22.0074      1.00000
      5     -20.2117      1.00000
      6     -20.2093      1.00000
      7     -19.3702      1.00000
      8     -19.3680      1.00000
      9     -19.1262      1.00000
     10     -17.7852      1.00000
     11     -16.9188      1.00000
     12     -16.9160      1.00000
     13     -16.9066      1.00000
     14     -16.9038      1.00000
     15     -16.7695      1.00000
     16     -15.5986      1.00000
     17     -13.7392      1.00000
     18     -13.7366      1.00000
     19     -13.7106      1.00000
     20     -13.5758      1.00000
     21     -13.4618      1.00000
     22     -13.4580      1.00000
     23     -12.9968      1.00000
     24     -12.2289      1.00000
     25     -11.7255      1.00000
     26     -11.7214      1.00000
     27     -10.1717      1.00000
     28     -10.1250      1.00000
     29     -10.1217      1.00000
     30      -9.9611      1.00000
     31      -9.9585      1.00000
     32      -9.2340      1.00000
     33      -9.2308      1.00000
     34      -8.6546      1.00000
     35      -8.4875      1.00000
     36      -8.2984      1.00000
     37      -8.2968      1.00000
     38      -8.2164      1.00000
     39      -8.2129      1.00000
     40      -7.8914      1.00000
     41      -7.8332      1.00000
     42      -7.8286      1.00000
     43      -7.4859      1.00000
     44      -5.9799      1.00000
     45      -5.8126      1.00000
     46      -5.8119      1.00000
     47      -4.8295      1.00000
     48      -4.0198      1.00000
     49      -4.0144      1.00000
     50      -3.5413      0.00000
     51      -3.5378      0.00000
     52      -1.0047      0.00000
     53      -0.9969      0.00000
     54      -0.9896      0.00000
     55      -0.6171      0.00000
     56       0.2154      0.00000
     57       0.6548      0.00000
     58       1.1360      0.00000
     59       1.6860      0.00000
     60       1.8271      0.00000
     61       1.8999      0.00000

 k-point   122 :       0.0263    0.0263    0.0000
  band No.  band energies     occupation 
      1     -31.9371      1.00000
      2     -29.7651      1.00000
      3     -29.7603      1.00000
      4     -22.0071      1.00000
      5     -20.2151      1.00000
      6     -20.2115      1.00000
      7     -19.3666      1.00000
      8     -19.3631      1.00000
      9     -19.1203      1.00000
     10     -17.7975      1.00000
     11     -17.0009      1.00000
     12     -16.9991      1.00000
     13     -16.8229      1.00000
     14     -16.8195      1.00000
     15     -16.7692      1.00000
     16     -15.5838      1.00000
     17     -13.8117      1.00000
     18     -13.7420      1.00000
     19     -13.7106      1.00000
     20     -13.5092      1.00000
     21     -13.4618      1.00000
     22     -13.4579      1.00000
     23     -13.0078      1.00000
     24     -12.2283      1.00000
     25     -11.7214      1.00000
     26     -11.7147      1.00000
     27     -10.1709      1.00000
     28     -10.1250      1.00000
     29     -10.1211      1.00000
     30      -9.9638      1.00000
     31      -9.9606      1.00000
     32      -9.2340      1.00000
     33      -9.2308      1.00000
     34      -8.6546      1.00000
     35      -8.4912      1.00000
     36      -8.3395      1.00000
     37      -8.3313      1.00000
     38      -8.1809      1.00000
     39      -8.1754      1.00000
     40      -7.8918      1.00000
     41      -7.8335      1.00000
     42      -7.8271      1.00000
     43      -7.4681      1.00000
     44      -5.9877      1.00000
     45      -5.8097      1.00000
     46      -5.8062      1.00000
     47      -4.8378      1.00000
     48      -4.0742      1.00000
     49      -4.0639      1.00000
     50      -3.4920      0.00000
     51      -3.4783      0.00000
     52      -1.0139      0.00000
     53      -0.9989      0.00000
     54      -0.9820      0.00000
     55      -0.6046      0.00000
     56       0.2199      0.00000
     57       0.6587      0.00000
     58       1.1402      0.00000
     59       1.6746      0.00000
     60       1.8268      0.00000
     61       1.8535      0.00000

 k-point   123 :       0.0526    0.0526    0.0000
  band No.  band energies     occupation 
      1     -31.9370      1.00000
      2     -29.7651      1.00000
      3     -29.7602      1.00000
      4     -22.0064      1.00000
      5     -20.2263      1.00000
      6     -20.2161      1.00000
      7     -19.3564      1.00000
      8     -19.3494      1.00000
      9     -19.1022      1.00000
     10     -17.8329      1.00000
     11     -17.0894      1.00000
     12     -17.0838      1.00000
     13     -16.7707      1.00000
     14     -16.7337      1.00000
     15     -16.7247      1.00000
     16     -15.5406      1.00000
     17     -13.9392      1.00000
     18     -13.7531      1.00000
     19     -13.7106      1.00000
     20     -13.4619      1.00000
     21     -13.4581      1.00000
     22     -13.4051      1.00000
     23     -13.0391      1.00000
     24     -12.2265      1.00000
     25     -11.7138      1.00000
     26     -11.6913      1.00000
     27     -10.1687      1.00000
     28     -10.1251      1.00000
     29     -10.1189      1.00000
     30      -9.9717      1.00000
     31      -9.9667      1.00000
     32      -9.2340      1.00000
     33      -9.2308      1.00000
     34      -8.6547      1.00000
     35      -8.5069      1.00000
     36      -8.4044      1.00000
     37      -8.3819      1.00000
     38      -8.1318      1.00000
     39      -8.1109      1.00000
     40      -7.8934      1.00000
     41      -7.8354      1.00000
     42      -7.8217      1.00000
     43      -7.4163      1.00000
     44      -6.0110      1.00000
     45      -5.8021      1.00000
     46      -5.7885      1.00000
     47      -4.8623      1.00000
     48      -4.1968      1.00000
     49      -4.1725      1.00000
     50      -3.3794      0.00000
     51      -3.3455      0.00000
     52      -1.0425      0.00000
     53      -1.0100      0.00000
     54      -0.9525      0.00000
     55      -0.5671      0.00000
     56       0.2334      0.00000
     57       0.6704      0.00000
     58       1.1525      0.00000
     59       1.6350      0.00000
     60       1.7756      0.00000
     61       1.8335      0.00000

 k-point   124 :       0.0789    0.0789    0.0000
  band No.  band energies     occupation 
      1     -31.9370      1.00000
      2     -29.7651      1.00000
      3     -29.7603      1.00000
      4     -22.0053      1.00000
      5     -20.2434      1.00000
      6     -20.2231      1.00000
      7     -19.3396      1.00000
      8     -19.3303      1.00000
      9     -19.0708      1.00000
     10     -17.8879      1.00000
     11     -17.1776      1.00000
     12     -17.1651      1.00000
     13     -16.7702      1.00000
     14     -16.6454      1.00000
     15     -16.6290      1.00000
     16     -15.4716      1.00000
     17     -14.0792      1.00000
     18     -13.7711      1.00000
     19     -13.7106      1.00000
     20     -13.4619      1.00000
     21     -13.4581      1.00000
     22     -13.3091      1.00000
     23     -13.0825      1.00000
     24     -12.2236      1.00000
     25     -11.7023      1.00000
     26     -11.6558      1.00000
     27     -10.1657      1.00000
     28     -10.1253      1.00000
     29     -10.1148      1.00000
     30      -9.9842      1.00000
     31      -9.9763      1.00000
     32      -9.2340      1.00000
     33      -9.2308      1.00000
     34      -8.6548      1.00000
     35      -8.5477      1.00000
     36      -8.4614      1.00000
     37      -8.4197      1.00000
     38      -8.0923      1.00000
     39      -8.0391      1.00000
     40      -7.8963      1.00000
     41      -7.8387      1.00000
     42      -7.8124      1.00000
     43      -7.3351      1.00000
     44      -6.0489      1.00000
     45      -5.7895      1.00000
     46      -5.7601      1.00000
     47      -4.9016      1.00000
     48      -4.3378      1.00000
     49      -4.3039      1.00000
     50      -3.2406      0.00000
     51      -3.1878      0.00000
     52      -1.0873      0.00000
     53      -1.0289      0.00000
     54      -0.9040      0.00000
     55      -0.5056      0.00000
     56       0.2557      0.00000
     57       0.6898      0.00000
     58       1.1722      0.00000
     59       1.3042      0.00000
     60       1.5879      0.00000
     61       1.7480      0.00000

 k-point   125 :       0.1053    0.1053    0.0000
  band No.  band energies     occupation 
      1     -31.9370      1.00000
      2     -29.7652      1.00000
      3     -29.7603      1.00000
      4     -22.0038      1.00000
      5     -20.2637      1.00000
      6     -20.2322      1.00000
      7     -19.3169      1.00000
      8     -19.3093      1.00000
      9     -19.0258      1.00000
     10     -17.9574      1.00000
     11     -17.2655      1.00000
     12     -17.2432      1.00000
     13     -16.7701      1.00000
     14     -16.5575      1.00000
     15     -16.5317      1.00000
     16     -15.3809      1.00000
     17     -14.2260      1.00000
     18     -13.7958      1.00000
     19     -13.7106      1.00000
     20     -13.4619      1.00000
     21     -13.4581      1.00000
     22     -13.2539      1.00000
     23     -13.1066      1.00000
     24     -12.2199      1.00000
     25     -11.6868      1.00000
     26     -11.6132      1.00000
     27     -10.1624      1.00000
     28     -10.1257      1.00000
     29     -10.1087      1.00000
     30     -10.0004      1.00000
     31      -9.9886      1.00000
     32      -9.2341      1.00000
     33      -9.2308      1.00000
     34      -8.6555      1.00000
     35      -8.6099      1.00000
     36      -8.5131      1.00000
     37      -8.4369      1.00000
     38      -8.0620      1.00000
     39      -7.9635      1.00000
     40      -7.9005      1.00000
     41      -7.8430      1.00000
     42      -7.7997      1.00000
     43      -7.2313      1.00000
     44      -6.0994      1.00000
     45      -5.7722      1.00000
     46      -5.7225      1.00000
     47      -4.9533      1.00000
     48      -4.4794      1.00000
     49      -4.4438      1.00000
     50      -3.0906      0.00000
     51      -3.0230      0.00000
     52      -1.1441      0.00000
     53      -1.0547      0.00000
     54      -0.8396      0.00000
     55      -0.4220      0.00000
     56       0.2867      0.00000
     57       0.7094      0.00000
     58       0.7165      0.00000
     59       1.1982      0.00000
     60       1.5313      0.00000
     61       1.6601      0.00000

 k-point   126 :       0.1316    0.1316    0.0000
  band No.  band energies     occupation 
      1     -31.9370      1.00000
      2     -29.7652      1.00000
      3     -29.7603      1.00000
      4     -22.0020      1.00000
      5     -20.2850      1.00000
      6     -20.2431      1.00000
      7     -19.2899      1.00000
      8     -19.2876      1.00000
      9     -18.9687      1.00000
     10     -18.0355      1.00000
     11     -17.3529      1.00000
     12     -17.3180      1.00000
     13     -16.7701      1.00000
     14     -16.4701      1.00000
     15     -16.4333      1.00000
     16     -15.2731      1.00000
     17     -14.3769      1.00000
     18     -13.8265      1.00000
     19     -13.7107      1.00000
     20     -13.4619      1.00000
     21     -13.4581      1.00000
     22     -13.2898      1.00000
     23     -13.0588      1.00000
     24     -12.2157      1.00000
     25     -11.6679      1.00000
     26     -11.5685      1.00000
     27     -10.1595      1.00000
     28     -10.1264      1.00000
     29     -10.1007      1.00000
     30     -10.0190      1.00000
     31     -10.0026      1.00000
     32      -9.2341      1.00000
     33      -9.2308      1.00000
     34      -8.6793      1.00000
     35      -8.6529      1.00000
     36      -8.5633      1.00000
     37      -8.4432      1.00000
     38      -8.0386      1.00000
     39      -7.9082      1.00000
     40      -7.8841      1.00000
     41      -7.8465      1.00000
     42      -7.7841      1.00000
     43      -7.1135      1.00000
     44      -6.1591      1.00000
     45      -5.7507      1.00000
     46      -5.6781      1.00000
     47      -5.0147      1.00000
     48      -4.6148      1.00000
     49      -4.5866      1.00000
     50      -2.9348      0.00000
     51      -2.8579      0.00000
     52      -1.2077      0.00000
     53      -1.0866      0.00000
     54      -0.7630      0.00000
     55      -0.3205      0.00000
     56       0.3261      0.00000
     57       0.4485      0.00000
     58       0.7495      0.00000
     59       1.2258      0.00000
     60       1.4726      0.00000
     61       1.5668      0.00000

 k-point   127 :       0.1579    0.1579    0.0000
  band No.  band energies     occupation 
      1     -31.9370      1.00000
      2     -29.7652      1.00000
      3     -29.7603      1.00000
      4     -22.0002      1.00000
      5     -20.3050      1.00000
      6     -20.2553      1.00000
      7     -19.2702      1.00000
      8     -19.2547      1.00000
      9     -18.9040      1.00000
     10     -18.1152      1.00000
     11     -17.4396      1.00000
     12     -17.3898      1.00000
     13     -16.7700      1.00000
     14     -16.3837      1.00000
     15     -16.3344      1.00000
     16     -15.1539      1.00000
     17     -14.5288      1.00000
     18     -13.8625      1.00000
     19     -13.7107      1.00000
     20     -13.4620      1.00000
     21     -13.4581      1.00000
     22     -13.3692      1.00000
     23     -12.9844      1.00000
     24     -12.2112      1.00000
     25     -11.6462      1.00000
     26     -11.5262      1.00000
     27     -10.1572      1.00000
     28     -10.1274      1.00000
     29     -10.0916      1.00000
     30     -10.0381      1.00000
     31     -10.0169      1.00000
     32      -9.2342      1.00000
     33      -9.2308      1.00000
     34      -8.7399      1.00000
     35      -8.6544      1.00000
     36      -8.6110      1.00000
     37      -8.4455      1.00000
     38      -8.0197      1.00000
     39      -7.9135      1.00000
     40      -7.8590      1.00000
     41      -7.7968      1.00000
     42      -7.7663      1.00000
     43      -6.9921      1.00000
     44      -6.2204      1.00000
     45      -5.7254      1.00000
     46      -5.6295      1.00000
     47      -5.0828      1.00000
     48      -4.7411      1.00000
     49      -4.7298      1.00000
     50      -2.7755      0.00000
     51      -2.6957      0.00000
     52      -1.2728      0.00000
     53      -1.1237      0.00000
     54      -0.6781      0.00000
     55      -0.2174      0.00000
     56       0.1640      0.00000
     57       0.3738      0.00000
     58       0.7873      0.00000
     59       1.2442      0.00000
     60       1.4255      0.00000
     61       1.4862      0.00000

 k-point   128 :       0.1842    0.1842    0.0000
  band No.  band energies     occupation 
      1     -31.9370      1.00000
      2     -29.7652      1.00000
      3     -29.7603      1.00000
      4     -21.9984      1.00000
      5     -20.3225      1.00000
      6     -20.2682      1.00000
      7     -19.2525      1.00000
      8     -19.2166      1.00000
      9     -18.8392      1.00000
     10     -18.1876      1.00000
     11     -17.5257      1.00000
     12     -17.4583      1.00000
     13     -16.7700      1.00000
     14     -16.2984      1.00000
     15     -16.2355      1.00000
     16     -15.0349      1.00000
     17     -14.6722      1.00000
     18     -13.9032      1.00000
     19     -13.7107      1.00000
     20     -13.4644      1.00000
     21     -13.4602      1.00000
     22     -13.4578      1.00000
     23     -12.9117      1.00000
     24     -12.2068      1.00000
     25     -11.6222      1.00000
     26     -11.4901      1.00000
     27     -10.1555      1.00000
     28     -10.1291      1.00000
     29     -10.0831      1.00000
     30     -10.0559      1.00000
     31     -10.0299      1.00000
     32      -9.2342      1.00000
     33      -9.2308      1.00000
     34      -8.7929      1.00000
     35      -8.6603      1.00000
     36      -8.6505      1.00000
     37      -8.4462      1.00000
     38      -8.0038      1.00000
     39      -7.9198      1.00000
     40      -7.8653      1.00000
     41      -7.7488      1.00000
     42      -7.7112      1.00000
     43      -6.8851      1.00000
     44      -6.2671      1.00000
     45      -5.6970      1.00000
     46      -5.5796      1.00000
     47      -5.1541      1.00000
     48      -4.8740      1.00000
     49      -4.8552      1.00000
     50      -2.6143      0.00000
     51      -2.5387      0.00000
     52      -1.3343      0.00000
     53      -1.1650      0.00000
     54      -0.5894      0.00000
     55      -0.2401      0.00000
     56       0.0574      0.00000
     57       0.4291      0.00000
     58       0.8275      0.00000
     59       1.2375      0.00000
     60       1.3664      0.00000
     61       1.4610      0.00000

 k-point   129 :       0.2105    0.2105    0.0000
  band No.  band energies     occupation 
      1     -31.9370      1.00000
      2     -29.7652      1.00000
      3     -29.7603      1.00000
      4     -21.9968      1.00000
      5     -20.3361      1.00000
      6     -20.2814      1.00000
      7     -19.2360      1.00000
      8     -19.1743      1.00000
      9     -18.7874      1.00000
     10     -18.2390      1.00000
     11     -17.6108      1.00000
     12     -17.5231      1.00000
     13     -16.7700      1.00000
     14     -16.2147      1.00000
     15     -16.1374      1.00000
     16     -14.9757      1.00000
     17     -14.7493      1.00000
     18     -13.9476      1.00000
     19     -13.7107      1.00000
     20     -13.5616      1.00000
     21     -13.4619      1.00000
     22     -13.4581      1.00000
     23     -12.8464      1.00000
     24     -12.2028      1.00000
     25     -11.5968      1.00000
     26     -11.4630      1.00000
     27     -10.1544      1.00000
     28     -10.1314      1.00000
     29     -10.0799      1.00000
     30     -10.0687      1.00000
     31     -10.0388      1.00000
     32      -9.2343      1.00000
     33      -9.2308      1.00000
     34      -8.8352      1.00000
     35      -8.6991      1.00000
     36      -8.6537      1.00000
     37      -8.4461      1.00000
     38      -7.9899      1.00000
     39      -7.9259      1.00000
     40      -7.8727      1.00000
     41      -7.7304      1.00000
     42      -7.6227      1.00000
     43      -6.8238      1.00000
     44      -6.2682      1.00000
     45      -5.6662      1.00000
     46      -5.5320      1.00000
     47      -5.2251      1.00000
     48      -5.0161      1.00000
     49      -4.9589      1.00000
     50      -2.4518      0.00000
     51      -2.3880      0.00000
     52      -1.3873      0.00000
     53      -1.2093      0.00000
     54      -0.5029      0.00000
     55      -0.4710      0.00000
     56       0.1695      0.00000
     57       0.4913      0.00000
     58       0.8645      0.00000
     59       1.2095      0.00000
     60       1.2922      0.00000
     61       1.4949      0.00000

 k-point   130 :       0.2368    0.2368    0.0000
  band No.  band energies     occupation 
      1     -31.9370      1.00000
      2     -29.7652      1.00000
      3     -29.7603      1.00000
      4     -21.9954      1.00000
      5     -20.3451      1.00000
      6     -20.2946      1.00000
      7     -19.2204      1.00000
      8     -19.1284      1.00000
      9     -18.7664      1.00000
     10     -18.2512      1.00000
     11     -17.6951      1.00000
     12     -17.5837      1.00000
     13     -16.7700      1.00000
     14     -16.1329      1.00000
     15     -16.0413      1.00000
     16     -15.0717      1.00000
     17     -14.6651      1.00000
     18     -13.9949      1.00000
     19     -13.7108      1.00000
     20     -13.6641      1.00000
     21     -13.4620      1.00000
     22     -13.4582      1.00000
     23     -12.7908      1.00000
     24     -12.1994      1.00000
     25     -11.5705      1.00000
     26     -11.4469      1.00000
     27     -10.1535      1.00000
     28     -10.1342      1.00000
     29     -10.0871      1.00000
     30     -10.0737      1.00000
     31     -10.0406      1.00000
     32      -9.2344      1.00000
     33      -9.2308      1.00000
     34      -8.8653      1.00000
     35      -8.7374      1.00000
     36      -8.6540      1.00000
     37      -8.4456      1.00000
     38      -7.9776      1.00000
     39      -7.9311      1.00000
     40      -7.8800      1.00000
     41      -7.7136      1.00000
     42      -7.5309      1.00000
     43      -6.8342      1.00000
     44      -6.1973      1.00000
     45      -5.6337      1.00000
     46      -5.4908      1.00000
     47      -5.2916      1.00000
     48      -5.1570      1.00000
     49      -5.0505      1.00000
     50      -2.2887      0.00000
     51      -2.2447      0.00000
     52      -1.4274      0.00000
     53      -1.2553      0.00000
     54      -0.7416      0.00000
     55      -0.4203      0.00000
     56       0.3303      0.00000
     57       0.5595      0.00000
     58       0.8896      0.00000
     59       1.1709      0.00000
     60       1.2408      0.00000
     61       1.5427      0.00000

 k-point   131 :       0.2632    0.2632    0.0000
  band No.  band energies     occupation 
      1     -31.9370      1.00000
      2     -29.7652      1.00000
      3     -29.7603      1.00000
      4     -21.9944      1.00000
      5     -20.3493      1.00000
      6     -20.3074      1.00000
      7     -19.2062      1.00000
      8     -19.0791      1.00000
      9     -18.7856      1.00000
     10     -18.2146      1.00000
     11     -17.7782      1.00000
     12     -17.6388      1.00000
     13     -16.7700      1.00000
     14     -16.0537      1.00000
     15     -15.9505      1.00000
     16     -15.2156      1.00000
     17     -14.5261      1.00000
     18     -14.0443      1.00000
     19     -13.7685      1.00000
     20     -13.7104      1.00000
     21     -13.4620      1.00000
     22     -13.4582      1.00000
     23     -12.7463      1.00000
     24     -12.1967      1.00000
     25     -11.5441      1.00000
     26     -11.4425      1.00000
     27     -10.1529      1.00000
     28     -10.1371      1.00000
     29     -10.0948      1.00000
     30     -10.0783      1.00000
     31     -10.0377      1.00000
     32      -9.2344      1.00000
     33      -9.2309      1.00000
     34      -8.8824      1.00000
     35      -8.7721      1.00000
     36      -8.6541      1.00000
     37      -8.4451      1.00000
     38      -7.9671      1.00000
     39      -7.9351      1.00000
     40      -7.8868      1.00000
     41      -7.6993      1.00000
     42      -7.4362      1.00000
     43      -6.9008      1.00000
     44      -6.0698      1.00000
     45      -5.6006      1.00000
     46      -5.4630      1.00000
     47      -5.3464      1.00000
     48      -5.2964      1.00000
     49      -5.1294      1.00000
     50      -2.1260      0.00000
     51      -2.1098      0.00000
     52      -1.4512      0.00000
     53      -1.3018      0.00000
     54      -1.0154      0.00000
     55      -0.3510      0.00000
     56       0.5046      0.00000
     57       0.6317      0.00000
     58       0.8918      0.00000
     59       1.1152      0.00000
     60       1.2405      0.00000
     61       1.5362      0.00000

 k-point   132 :       0.2895    0.2895    0.0000
  band No.  band energies     occupation 
      1     -31.9370      1.00000
      2     -29.7652      1.00000
      3     -29.7603      1.00000
      4     -21.9937      1.00000
      5     -20.3486      1.00000
      6     -20.3195      1.00000
      7     -19.1941      1.00000
      8     -19.0270      1.00000
      9     -18.8340      1.00000
     10     -18.1406      1.00000
     11     -17.8601      1.00000
     12     -17.6865      1.00000
     13     -16.7700      1.00000
     14     -15.9775      1.00000
     15     -15.8734      1.00000
     16     -15.3556      1.00000
     17     -14.3787      1.00000
     18     -14.0945      1.00000
     19     -13.8706      1.00000
     20     -13.7106      1.00000
     21     -13.4620      1.00000
     22     -13.4582      1.00000
     23     -12.7143      1.00000
     24     -12.1950      1.00000
     25     -11.5183      1.00000
     26     -11.4490      1.00000
     27     -10.1523      1.00000
     28     -10.1393      1.00000
     29     -10.1002      1.00000
     30     -10.0818      1.00000
     31     -10.0345      1.00000
     32      -9.2345      1.00000
     33      -9.2309      1.00000
     34      -8.8868      1.00000
     35      -8.8026      1.00000
     36      -8.6541      1.00000
     37      -8.4447      1.00000
     38      -7.9588      1.00000
     39      -7.9377      1.00000
     40      -7.8923      1.00000
     41      -7.6888      1.00000
     42      -7.3386      1.00000
     43      -6.9947      1.00000
     44      -5.9152      1.00000
     45      -5.5679      1.00000
     46      -5.4641      1.00000
     47      -5.4339      1.00000
     48      -5.3740      1.00000
     49      -5.1940      1.00000
     50      -1.9849      0.00000
     51      -1.9641      0.00000
     52      -1.4559      0.00000
     53      -1.3477      0.00000
     54      -1.2869      0.00000
     55      -0.2976      0.00000
     56       0.6824      0.00000
     57       0.7068      0.00000
     58       0.9289      0.00000
     59       1.0599      0.00000
     60       1.2774      0.00000
     61       1.4963      0.00000

 k-point   133 :       0.3158    0.3158    0.0000
  band No.  band energies     occupation 
      1     -31.9370      1.00000
      2     -29.7652      1.00000
      3     -29.7603      1.00000
      4     -21.9933      1.00000
      5     -20.3434      1.00000
      6     -20.3307      1.00000
      7     -19.1858      1.00000
      8     -18.9724      1.00000
      9     -18.8940      1.00000
     10     -18.0498      1.00000
     11     -17.9406      1.00000
     12     -17.7212      1.00000
     13     -16.7700      1.00000
     14     -15.9053      1.00000
     15     -15.8366      1.00000
     16     -15.4583      1.00000
     17     -14.2393      1.00000
     18     -14.1447      1.00000
     19     -13.9618      1.00000
     20     -13.7106      1.00000
     21     -13.4620      1.00000
     22     -13.4583      1.00000
     23     -12.6964      1.00000
     24     -12.1941      1.00000
     25     -11.4937      1.00000
     26     -11.4645      1.00000
     27     -10.1520      1.00000
     28     -10.1404      1.00000
     29     -10.1033      1.00000
     30     -10.0830      1.00000
     31     -10.0329      1.00000
     32      -9.2345      1.00000
     33      -9.2309      1.00000
     34      -8.8807      1.00000
     35      -8.8268      1.00000
     36      -8.6541      1.00000
     37      -8.4446      1.00000
     38      -7.9536      1.00000
     39      -7.9389      1.00000
     40      -7.8955      1.00000
     41      -7.6829      1.00000
     42      -7.2383      1.00000
     43      -7.0984      1.00000
     44      -5.7555      1.00000
     45      -5.5706      1.00000
     46      -5.5360      1.00000
     47      -5.4918      1.00000
     48      -5.3749      1.00000
     49      -5.2387      1.00000
     50      -1.8737      0.00000
     51      -1.8046      0.00000
     52      -1.5500      0.00000
     53      -1.4402      0.00000
     54      -1.3909      0.00000
     55      -0.2690      0.00000
     56       0.7625      0.00000
     57       0.8506      0.00000
     58       0.9362      0.00000
     59       1.0223      0.00000
     60       1.3164      0.00000
     61       1.4655      0.00000

 k-point   134 :       0.3421    0.3421    0.0000
  band No.  band energies     occupation 
      1     -31.9370      1.00000
      2     -29.7652      1.00000
      3     -29.7603      1.00000
      4     -21.9933      1.00000
      5     -20.3410      1.00000
      6     -20.3339      1.00000
      7     -19.1843      1.00000
      8     -18.9522      1.00000
      9     -18.9157      1.00000
     10     -18.0195      1.00000
     11     -17.9681      1.00000
     12     -17.7272      1.00000
     13     -16.7700      1.00000
     14     -15.8859      1.00000
     15     -15.8379      1.00000
     16     -15.4755      1.00000
     17     -14.1935      1.00000
     18     -14.1708      1.00000
     19     -13.9817      1.00000
     20     -13.7106      1.00000
     21     -13.4620      1.00000
     22     -13.4583      1.00000
     23     -12.6937      1.00000
     24     -12.1940      1.00000
     25     -11.4865      1.00000
     26     -11.4705      1.00000
     27     -10.1523      1.00000
     28     -10.1402      1.00000
     29     -10.1044      1.00000
     30     -10.0820      1.00000
     31     -10.0331      1.00000
     32      -9.2346      1.00000
     33      -9.2309      1.00000
     34      -8.8762      1.00000
     35      -8.8338      1.00000
     36      -8.6540      1.00000
     37      -8.4450      1.00000
     38      -7.9528      1.00000
     39      -7.9392      1.00000
     40      -7.8953      1.00000
     41      -7.6821      1.00000
     42      -7.2024      1.00000
     43      -7.1352      1.00000
     44      -5.7041      1.00000
     45      -5.6169      1.00000
     46      -5.5253      1.00000
     47      -5.5033      1.00000
     48      -5.3740      1.00000
     49      -5.2462      1.00000
     50      -1.8555      0.00000
     51      -1.7230      0.00000
     52      -1.6486      0.00000
     53      -1.4318      0.00000
     54      -1.4032      0.00000
     55      -0.2651      0.00000
     56       0.7807      0.00000
     57       0.8377      0.00000
     58       0.9907      0.00000
     59       1.0168      0.00000
     60       1.3232      0.00000
     61       1.4689      0.00000

 k-point   135 :       0.3684    0.3684    0.0000
  band No.  band energies     occupation 
      1     -31.9369      1.00000
      2     -29.7652      1.00000
      3     -29.7603      1.00000
      4     -21.9935      1.00000
      5     -20.3496      1.00000
      6     -20.3219      1.00000
      7     -19.1941      1.00000
      8     -18.9977      1.00000
      9     -18.8575      1.00000
     10     -18.0962      1.00000
     11     -17.9302      1.00000
     12     -17.6756      1.00000
     13     -16.7699      1.00000
     14     -16.0052      1.00000
     15     -15.7768      1.00000
     16     -15.4220      1.00000
     17     -14.2395      1.00000
     18     -14.2330      1.00000
     19     -13.8721      1.00000
     20     -13.7106      1.00000
     21     -13.4619      1.00000
     22     -13.4583      1.00000
     23     -12.7074      1.00000
     24     -12.1944      1.00000
     25     -11.5108      1.00000
     26     -11.4502      1.00000
     27     -10.1530      1.00000
     28     -10.1392      1.00000
     29     -10.1039      1.00000
     30     -10.0796      1.00000
     31     -10.0348      1.00000
     32      -9.2346      1.00000
     33      -9.2309      1.00000
     34      -8.8877      1.00000
     35      -8.8110      1.00000
     36      -8.6538      1.00000
     37      -8.4463      1.00000
     38      -7.9571      1.00000
     39      -7.9397      1.00000
     40      -7.8908      1.00000
     41      -7.6865      1.00000
     42      -7.2997      1.00000
     43      -7.0295      1.00000
     44      -5.8359      1.00000
     45      -5.5467      1.00000
     46      -5.5386      1.00000
     47      -5.4781      1.00000
     48      -5.3804      1.00000
     49      -5.1824      1.00000
     50      -2.0789      0.00000
     51      -1.6551      0.00000
     52      -1.4988      0.00000
     53      -1.4678      0.00000
     54      -1.3474      0.00000
     55      -0.2871      0.00000
     56       0.7605      0.00000
     57       0.8232      0.00000
     58       1.0362      0.00000
     59       1.1452      0.00000
     60       1.3207      0.00000
     61       1.4431      0.00000

 k-point   136 :       0.3947    0.3947    0.0000
  band No.  band energies     occupation 
      1     -31.9370      1.00000
      2     -29.7652      1.00000
      3     -29.7603      1.00000
      4     -21.9938      1.00000
      5     -20.3569      1.00000
      6     -20.3083      1.00000
      7     -19.2172      1.00000
      8     -19.0249      1.00000
      9     -18.7985      1.00000
     10     -18.1703      1.00000
     11     -17.9323      1.00000
     12     -17.5739      1.00000
     13     -16.7699      1.00000
     14     -16.1480      1.00000
     15     -15.7232      1.00000
     16     -15.3436      1.00000
     17     -14.3254      1.00000
     18     -14.2804      1.00000
     19     -13.7356      1.00000
     20     -13.7103      1.00000
     21     -13.4619      1.00000
     22     -13.4583      1.00000
     23     -12.7372      1.00000
     24     -12.1952      1.00000
     25     -11.5348      1.00000
     26     -11.4327      1.00000
     27     -10.1539      1.00000
     28     -10.1380      1.00000
     29     -10.1023      1.00000
     30     -10.0766      1.00000
     31     -10.0371      1.00000
     32      -9.2346      1.00000
     33      -9.2309      1.00000
     34      -8.9025      1.00000
     35      -8.7742      1.00000
     36      -8.6534      1.00000
     37      -8.4488      1.00000
     38      -7.9676      1.00000
     39      -7.9404      1.00000
     40      -7.8822      1.00000
     41      -7.6957      1.00000
     42      -7.3850      1.00000
     43      -6.9212      1.00000
     44      -5.9656      1.00000
     45      -5.5562      1.00000
     46      -5.5246      1.00000
     47      -5.4553      1.00000
     48      -5.3951      1.00000
     49      -5.0531      1.00000
     50      -2.3077      0.00000
     51      -1.5787      0.00000
     52      -1.4987      0.00000
     53      -1.3582      0.00000
     54      -1.2746      0.00000
     55      -0.3347      0.00000
     56       0.6212      0.00000
     57       0.7357      0.00000
     58       0.8007      0.00000
     59       1.0851      0.00000
     60       1.3350      0.00000
     61       1.3944      0.00000

 k-point   137 :       0.4211    0.4211    0.0000
  band No.  band energies     occupation 
      1     -31.9370      1.00000
      2     -29.7652      1.00000
      3     -29.7603      1.00000
      4     -21.9942      1.00000
      5     -20.3627      1.00000
      6     -20.2947      1.00000
      7     -19.2480      1.00000
      8     -19.0366      1.00000
      9     -18.7401      1.00000
     10     -18.2403      1.00000
     11     -17.9465      1.00000
     12     -17.4548      1.00000
     13     -16.7699      1.00000
     14     -16.2924      1.00000
     15     -15.6788      1.00000
     16     -15.2609      1.00000
     17     -14.4170      1.00000
     18     -14.3154      1.00000
     19     -13.7107      1.00000
     20     -13.6028      1.00000
     21     -13.4618      1.00000
     22     -13.4583      1.00000
     23     -12.7814      1.00000
     24     -12.1962      1.00000
     25     -11.5556      1.00000
     26     -11.4186      1.00000
     27     -10.1549      1.00000
     28     -10.1368      1.00000
     29     -10.1003      1.00000
     30     -10.0739      1.00000
     31     -10.0391      1.00000
     32      -9.2347      1.00000
     33      -9.2309      1.00000
     34      -8.9150      1.00000
     35      -8.7329      1.00000
     36      -8.6525      1.00000
     37      -8.4529      1.00000
     38      -7.9836      1.00000
     39      -7.9410      1.00000
     40      -7.8706      1.00000
     41      -7.7085      1.00000
     42      -7.4536      1.00000
     43      -6.8104      1.00000
     44      -6.0931      1.00000
     45      -5.5558      1.00000
     46      -5.5330      1.00000
     47      -5.4370      1.00000
     48      -5.4164      1.00000
     49      -4.9058      1.00000
     50      -2.5135      0.00000
     51      -1.5244      0.00000
     52      -1.5148      0.00000
     53      -1.2324      0.00000
     54      -1.1899      0.00000
     55      -0.4014      0.00000
     56       0.4888      0.00000
     57       0.7137      0.00000
     58       0.7779      0.00000
     59       1.1018      0.00000
     60       1.3657      0.00000
     61       1.3906      0.00000

 k-point   138 :       0.4474    0.4474    0.0000
  band No.  band energies     occupation 
      1     -31.9370      1.00000
      2     -29.7652      1.00000
      3     -29.7603      1.00000
      4     -21.9945      1.00000
      5     -20.3669      1.00000
      6     -20.2831      1.00000
      7     -19.2768      1.00000
      8     -19.0402      1.00000
      9     -18.6852      1.00000
     10     -18.3034      1.00000
     11     -17.9602      1.00000
     12     -17.3383      1.00000
     13     -16.7699      1.00000
     14     -16.4253      1.00000
     15     -15.6455      1.00000
     16     -15.1846      1.00000
     17     -14.4987      1.00000
     18     -14.3421      1.00000
     19     -13.7106      1.00000
     20     -13.4862      1.00000
     21     -13.4616      1.00000
     22     -13.4578      1.00000
     23     -12.8342      1.00000
     24     -12.1970      1.00000
     25     -11.5714      1.00000
     26     -11.4082      1.00000
     27     -10.1556      1.00000
     28     -10.1358      1.00000
     29     -10.0985      1.00000
     30     -10.0723      1.00000
     31     -10.0403      1.00000
     32      -9.2347      1.00000
     33      -9.2309      1.00000
     34      -8.9241      1.00000
     35      -8.6948      1.00000
     36      -8.6500      1.00000
     37      -8.4587      1.00000
     38      -8.0023      1.00000
     39      -7.9415      1.00000
     40      -7.8578      1.00000
     41      -7.7225      1.00000
     42      -7.5028      1.00000
     43      -6.6971      1.00000
     44      -6.2183      1.00000
     45      -5.5483      1.00000
     46      -5.5418      1.00000
     47      -5.4441      1.00000
     48      -5.4221      1.00000
     49      -4.7733      1.00000
     50      -2.6823      0.00000
     51      -1.5421      0.00000
     52      -1.4685      0.00000
     53      -1.1293      0.00000
     54      -1.1017      0.00000
     55      -0.4785      0.00000
     56       0.3843      0.00000
     57       0.6973      0.00000
     58       0.7602      0.00000
     59       1.1027      0.00000
     60       1.3458      0.00000
     61       1.4691      0.00000

 k-point   139 :       0.4737    0.4737    0.0000
  band No.  band energies     occupation 
      1     -31.9370      1.00000
      2     -29.7652      1.00000
      3     -29.7603      1.00000
      4     -21.9948      1.00000
      5     -20.3694      1.00000
      6     -20.2753      1.00000
      7     -19.2966      1.00000
      8     -19.0407      1.00000
      9     -18.6409      1.00000
     10     -18.3526      1.00000
     11     -17.9694      1.00000
     12     -17.2450      1.00000
     13     -16.7699      1.00000
     14     -16.5281      1.00000
     15     -15.6246      1.00000
     16     -15.1272      1.00000
     17     -14.5591      1.00000
     18     -14.3590      1.00000
     19     -13.7106      1.00000
     20     -13.4620      1.00000
     21     -13.4587      1.00000
     22     -13.3970      1.00000
     23     -12.8829      1.00000
     24     -12.1976      1.00000
     25     -11.5812      1.00000
     26     -11.4019      1.00000
     27     -10.1562      1.00000
     28     -10.1351      1.00000
     29     -10.0972      1.00000
     30     -10.0717      1.00000
     31     -10.0408      1.00000
     32      -9.2347      1.00000
     33      -9.2309      1.00000
     34      -8.9297      1.00000
     35      -8.6714      1.00000
     36      -8.6424      1.00000
     37      -8.4648      1.00000
     38      -8.0179      1.00000
     39      -7.9418      1.00000
     40      -7.8469      1.00000
     41      -7.7345      1.00000
     42      -7.5318      1.00000
     43      -6.5815      1.00000
     44      -6.3411      1.00000
     45      -5.5542      1.00000
     46      -5.5259      1.00000
     47      -5.4723      1.00000
     48      -5.4140      1.00000
     49      -4.6797      1.00000
     50      -2.7964      0.00000
     51      -1.5532      0.00000
     52      -1.4398      0.00000
     53      -1.0596      0.00000
     54      -1.0262      0.00000
     55      -0.5483      0.00000
     56       0.3143      0.00000
     57       0.6872      0.00000
     58       0.7492      0.00000
     59       1.0995      0.00000
     60       1.3328      0.00000
     61       1.5521      0.00000

 k-point   140 :       0.5000    0.5000    0.0000
  band No.  band energies     occupation 
      1     -31.9370      1.00000
      2     -29.7652      1.00000
      3     -29.7603      1.00000
      4     -21.9948      1.00000
      5     -20.3703      1.00000
      6     -20.2725      1.00000
      7     -19.3036      1.00000
      8     -19.0407      1.00000
      9     -18.6223      1.00000
     10     -18.3729      1.00000
     11     -17.9727      1.00000
     12     -17.2067      1.00000
     13     -16.7699      1.00000
     14     -16.5694      1.00000
     15     -15.6176      1.00000
     16     -15.1050      1.00000
     17     -14.5824      1.00000
     18     -14.3647      1.00000
     19     -13.7106      1.00000
     20     -13.4620      1.00000
     21     -13.4586      1.00000
     22     -13.3626      1.00000
     23     -12.9044      1.00000
     24     -12.1978      1.00000
     25     -11.5845      1.00000
     26     -11.3997      1.00000
     27     -10.1564      1.00000
     28     -10.1348      1.00000
     29     -10.0967      1.00000
     30     -10.0716      1.00000
     31     -10.0408      1.00000
     32      -9.2347      1.00000
     33      -9.2309      1.00000
     34      -8.9316      1.00000
     35      -8.6660      1.00000
     36      -8.6358      1.00000
     37      -8.4678      1.00000
     38      -8.0240      1.00000
     39      -7.9419      1.00000
     40      -7.8423      1.00000
     41      -7.7395      1.00000
     42      -7.5413      1.00000
     43      -6.4750      1.00000
     44      -6.4500      1.00000
     45      -5.5571      1.00000
     46      -5.5057      1.00000
     47      -5.4960      1.00000
     48      -5.4112      1.00000
     49      -4.6454      1.00000
     50      -2.8372      0.00000
     51      -1.5570      0.00000
     52      -1.4301      0.00000
     53      -1.0347      0.00000
     54      -0.9934      0.00000
     55      -0.5792      0.00000
     56       0.2894      0.00000
     57       0.6838      0.00000
     58       0.7456      0.00000
     59       1.0980      0.00000
     60       1.3293      0.00000
     61       1.6117      0.00000
 Fermi energy:        -3.7827074970

 spin component 2

 k-point     1 :       0.0000    0.0000    0.0000
  band No.  band energies     occupation 
      1     -31.9371      1.00000
      2     -29.7651      1.00000
      3     -29.7603      1.00000
      4     -22.0074      1.00000
      5     -20.2117      1.00000
      6     -20.2093      1.00000
      7     -19.3702      1.00000
      8     -19.3680      1.00000
      9     -19.1262      1.00000
     10     -17.7852      1.00000
     11     -16.9188      1.00000
     12     -16.9160      1.00000
     13     -16.9066      1.00000
     14     -16.9038      1.00000
     15     -16.7695      1.00000
     16     -15.5986      1.00000
     17     -13.7392      1.00000
     18     -13.7366      1.00000
     19     -13.7106      1.00000
     20     -13.5758      1.00000
     21     -13.4618      1.00000
     22     -13.4580      1.00000
     23     -12.9968      1.00000
     24     -12.2289      1.00000
     25     -11.7255      1.00000
     26     -11.7214      1.00000
     27     -10.1717      1.00000
     28     -10.1250      1.00000
     29     -10.1217      1.00000
     30      -9.9611      1.00000
     31      -9.9585      1.00000
     32      -9.2340      1.00000
     33      -9.2308      1.00000
     34      -8.6546      1.00000
     35      -8.4875      1.00000
     36      -8.2984      1.00000
     37      -8.2968      1.00000
     38      -8.2164      1.00000
     39      -8.2129      1.00000
     40      -7.8914      1.00000
     41      -7.8332      1.00000
     42      -7.8286      1.00000
     43      -7.4859      1.00000
     44      -5.9799      1.00000
     45      -5.8126      1.00000
     46      -5.8119      1.00000
     47      -4.8295      1.00000
     48      -4.0198      1.00000
     49      -4.0144      1.00000
     50      -3.5413      0.00000
     51      -3.5378      0.00000
     52      -1.0047      0.00000
     53      -0.9969      0.00000
     54      -0.9896      0.00000
     55      -0.6171      0.00000
     56       0.2154      0.00000
     57       0.6548      0.00000
     58       1.1360      0.00000
     59       1.6856      0.00000
     60       1.7436      0.00000
     61       1.8500      0.00000

 k-point     2 :       0.0263    0.0000    0.0000
  band No.  band energies     occupation 
      1     -31.9371      1.00000
      2     -29.7651      1.00000
      3     -29.7603      1.00000
      4     -22.0073      1.00000
      5     -20.2131      1.00000
      6     -20.2099      1.00000
      7     -19.3691      1.00000
      8     -19.3663      1.00000
      9     -19.1242      1.00000
     10     -17.7893      1.00000
     11     -16.9652      1.00000
     12     -16.9608      1.00000
     13     -16.8620      1.00000
     14     -16.8563      1.00000
     15     -16.7695      1.00000
     16     -15.5937      1.00000
     17     -13.7667      1.00000
     18     -13.7404      1.00000
     19     -13.7106      1.00000
     20     -13.5483      1.00000
     21     -13.4618      1.00000
     22     -13.4580      1.00000
     23     -13.0005      1.00000
     24     -12.2287      1.00000
     25     -11.7245      1.00000
     26     -11.7187      1.00000
     27     -10.1715      1.00000
     28     -10.1251      1.00000
     29     -10.1214      1.00000
     30      -9.9619      1.00000
     31      -9.9592      1.00000
     32      -9.2340      1.00000
     33      -9.2308      1.00000
     34      -8.6546      1.00000
     35      -8.4890      1.00000
     36      -8.3130      1.00000
     37      -8.3123      1.00000
     38      -8.2026      1.00000
     39      -8.1972      1.00000
     40      -7.8915      1.00000
     41      -7.8335      1.00000
     42      -7.8279      1.00000
     43      -7.4799      1.00000
     44      -5.9825      1.00000
     45      -5.8112      1.00000
     46      -5.8105      1.00000
     47      -4.8323      1.00000
     48      -4.0368      1.00000
     49      -4.0346      1.00000
     50      -3.5241      0.00000
     51      -3.5162      0.00000
     52      -1.0078      0.00000
     53      -0.9979      0.00000
     54      -0.9868      0.00000
     55      -0.6129      0.00000
     56       0.2169      0.00000
     57       0.6561      0.00000
     58       1.1374      0.00000
     59       1.6837      0.00000
     60       1.8273      0.00000
     61       1.9584      0.00000

 k-point     3 :       0.0526    0.0000    0.0000
  band No.  band energies     occupation 
      1     -31.9371      1.00000
      2     -29.7651      1.00000
      3     -29.7603      1.00000
      4     -22.0071      1.00000
      5     -20.2171      1.00000
      6     -20.2113      1.00000
      7     -19.3659      1.00000
      8     -19.3611      1.00000
      9     -19.1183      1.00000
     10     -17.8014      1.00000
     11     -17.0225      1.00000
     12     -17.0040      1.00000
     13     -16.8178      1.00000
     14     -16.7972      1.00000
     15     -16.7691      1.00000
     16     -15.5790      1.00000
     17     -13.8293      1.00000
     18     -13.7442      1.00000
     19     -13.7106      1.00000
     20     -13.4933      1.00000
     21     -13.4619      1.00000
     22     -13.4579      1.00000
     23     -13.0115      1.00000
     24     -12.2281      1.00000
     25     -11.7220      1.00000
     26     -11.7106      1.00000
     27     -10.1708      1.00000
     28     -10.1251      1.00000
     29     -10.1205      1.00000
     30      -9.9646      1.00000
     31      -9.9614      1.00000
     32      -9.2340      1.00000
     33      -9.2308      1.00000
     34      -8.6546      1.00000
     35      -8.4941      1.00000
     36      -8.3448      1.00000
     37      -8.3406      1.00000
     38      -8.1769      1.00000
     39      -8.1641      1.00000
     40      -7.8920      1.00000
     41      -7.8343      1.00000
     42      -7.8260      1.00000
     43      -7.4620      1.00000
     44      -5.9903      1.00000
     45      -5.8085      1.00000
     46      -5.8046      1.00000
     47      -4.8406      1.00000
     48      -4.0906      1.00000
     49      -4.0781      1.00000
     50      -3.4799      0.00000
     51      -3.4584      0.00000
     52      -1.0188      0.00000
     53      -0.9988      0.00000
     54      -0.9784      0.00000
     55      -0.6003      0.00000
     56       0.2214      0.00000
     57       0.6600      0.00000
     58       1.1416      0.00000
     59       1.6695      0.00000
     60       1.8255      0.00000
     61       1.9125      0.00000

 k-point     4 :       0.0789    0.0000    0.0000
  band No.  band energies     occupation 
      1     -31.9371      1.00000
      2     -29.7651      1.00000
      3     -29.7603      1.00000
      4     -22.0066      1.00000
      5     -20.2236      1.00000
      6     -20.2137      1.00000
      7     -19.3609      1.00000
      8     -19.3526      1.00000
      9     -19.1083      1.00000
     10     -17.8212      1.00000
     11     -17.0832      1.00000
     12     -17.0417      1.00000
     13     -16.7808      1.00000
     14     -16.7662      1.00000
     15     -16.7336      1.00000
     16     -15.5548      1.00000
     17     -13.9025      1.00000
     18     -13.7506      1.00000
     19     -13.7106      1.00000
     20     -13.4619      1.00000
     21     -13.4582      1.00000
     22     -13.4324      1.00000
     23     -13.0291      1.00000
     24     -12.2271      1.00000
     25     -11.7180      1.00000
     26     -11.6973      1.00000
     27     -10.1698      1.00000
     28     -10.1252      1.00000
     29     -10.1190      1.00000
     30      -9.9689      1.00000
     31      -9.9650      1.00000
     32      -9.2340      1.00000
     33      -9.2308      1.00000
     34      -8.6546      1.00000
     35      -8.5048      1.00000
     36      -8.3780      1.00000
     37      -8.3715      1.00000
     38      -8.1512      1.00000
     39      -8.1250      1.00000
     40      -7.8928      1.00000
     41      -7.8356      1.00000
     42      -7.8229      1.00000
     43      -7.4329      1.00000
     44      -6.0032      1.00000
     45      -5.8042      1.00000
     46      -5.7948      1.00000
     47      -4.8542      1.00000
     48      -4.1670      1.00000
     49      -4.1337      1.00000
     50      -3.4214      0.00000
     51      -3.3769      0.00000
     52      -1.0382      0.00000
     53      -0.9991      0.00000
     54      -0.9645      0.00000
     55      -0.5795      0.00000
     56       0.2289      0.00000
     57       0.6665      0.00000
     58       1.1485      0.00000
     59       1.6489      0.00000
     60       1.8100      0.00000
     61       1.8254      0.00000

 k-point     5 :       0.1053    0.0000    0.0000
  band No.  band energies     occupation 
      1     -31.9371      1.00000
      2     -29.7651      1.00000
      3     -29.7603      1.00000
      4     -22.0061      1.00000
      5     -20.2322      1.00000
      6     -20.2169      1.00000
      7     -19.3548      1.00000
      8     -19.3409      1.00000
      9     -19.0939      1.00000
     10     -17.8478      1.00000
     11     -17.1467      1.00000
     12     -17.0738      1.00000
     13     -16.7714      1.00000
     14     -16.7405      1.00000
     15     -16.6662      1.00000
     16     -15.5219      1.00000
     17     -13.9804      1.00000
     18     -13.7600      1.00000
     19     -13.7106      1.00000
     20     -13.4619      1.00000
     21     -13.4581      1.00000
     22     -13.3722      1.00000
     23     -13.0524      1.00000
     24     -12.2257      1.00000
     25     -11.7125      1.00000
     26     -11.6796      1.00000
     27     -10.1685      1.00000
     28     -10.1253      1.00000
     29     -10.1167      1.00000
     30      -9.9749      1.00000
     31      -9.9697      1.00000
     32      -9.2340      1.00000
     33      -9.2308      1.00000
     34      -8.6546      1.00000
     35      -8.5240      1.00000
     36      -8.4060      1.00000
     37      -8.4015      1.00000
     38      -8.1286      1.00000
     39      -8.0831      1.00000
     40      -7.8940      1.00000
     41      -7.8372      1.00000
     42      -7.8186      1.00000
     43      -7.3934      1.00000
     44      -6.0211      1.00000
     45      -5.7980      1.00000
     46      -5.7814      1.00000
     47      -4.8729      1.00000
     48      -4.2561      1.00000
     49      -4.1937      1.00000
     50      -3.3575      0.00000
     51      -3.2807      0.00000
     52      -1.0646      0.00000
     53      -0.9991      0.00000
     54      -0.9456      0.00000
     55      -0.5505      0.00000
     56       0.2393      0.00000
     57       0.6756      0.00000
     58       1.1580      0.00000
     59       1.6134      0.00000
     60       1.7551      0.00000
     61       1.8143      0.00000

 k-point     6 :       0.1316    0.0000    0.0000
  band No.  band energies     occupation 
      1     -31.9370      1.00000
      2     -29.7651      1.00000
      3     -29.7603      1.00000
      4     -22.0054      1.00000
      5     -20.2426      1.00000
      6     -20.2207      1.00000
      7     -19.3482      1.00000
      8     -19.3262      1.00000
      9     -19.0751      1.00000
     10     -17.8804      1.00000
     11     -17.2123      1.00000
     12     -17.1007      1.00000
     13     -16.7707      1.00000
     14     -16.7106      1.00000
     15     -16.5954      1.00000
     16     -15.4807      1.00000
     17     -14.0613      1.00000
     18     -13.7726      1.00000
     19     -13.7106      1.00000
     20     -13.4619      1.00000
     21     -13.4581      1.00000
     22     -13.3141      1.00000
     23     -13.0802      1.00000
     24     -12.2240      1.00000
     25     -11.7057      1.00000
     26     -11.6584      1.00000
     27     -10.1670      1.00000
     28     -10.1255      1.00000
     29     -10.1138      1.00000
     30      -9.9823      1.00000
     31      -9.9756      1.00000
     32      -9.2340      1.00000
     33      -9.2308      1.00000
     34      -8.6546      1.00000
     35      -8.5534      1.00000
     36      -8.4325      1.00000
     37      -8.4229      1.00000
     38      -8.1097      1.00000
     39      -8.0395      1.00000
     40      -7.8958      1.00000
     41      -7.8391      1.00000
     42      -7.8134      1.00000
     43      -7.3446      1.00000
     44      -6.0437      1.00000
     45      -5.7901      1.00000
     46      -5.7648      1.00000
     47      -4.8964      1.00000
     48      -4.3526      1.00000
     49      -4.2536      1.00000
     50      -3.2930      0.00000
     51      -3.1745      0.00000
     52      -1.0971      0.00000
     53      -0.9990      0.00000
     54      -0.9223      0.00000
     55      -0.5136      0.00000
     56       0.2526      0.00000
     57       0.6872      0.00000
     58       1.0832      0.00000
     59       1.1704      0.00000
     60       1.5875      0.00000
     61       1.7997      0.00000

 k-point     7 :       0.1579    0.0000    0.0000
  band No.  band energies     occupation 
      1     -31.9370      1.00000
      2     -29.7652      1.00000
      3     -29.7603      1.00000
      4     -22.0046      1.00000
      5     -20.2544      1.00000
      6     -20.2251      1.00000
      7     -19.3415      1.00000
      8     -19.3087      1.00000
      9     -19.0518      1.00000
     10     -17.9178      1.00000
     11     -17.2796      1.00000
     12     -17.1230      1.00000
     13     -16.7705      1.00000
     14     -16.6845      1.00000
     15     -16.5218      1.00000
     16     -15.4323      1.00000
     17     -14.1441      1.00000
     18     -13.7889      1.00000
     19     -13.7106      1.00000
     20     -13.4619      1.00000
     21     -13.4581      1.00000
     22     -13.2588      1.00000
     23     -13.1113      1.00000
     24     -12.2220      1.00000
     25     -11.6975      1.00000
     26     -11.6346      1.00000
     27     -10.1655      1.00000
     28     -10.1257      1.00000
     29     -10.1100      1.00000
     30      -9.9911      1.00000
     31      -9.9825      1.00000
     32      -9.2340      1.00000
     33      -9.2308      1.00000
     34      -8.6547      1.00000
     35      -8.5903      1.00000
     36      -8.4601      1.00000
     37      -8.4340      1.00000
     38      -8.0943      1.00000
     39      -7.9945      1.00000
     40      -7.8981      1.00000
     41      -7.8410      1.00000
     42      -7.8072      1.00000
     43      -7.2878      1.00000
     44      -6.0708      1.00000
     45      -5.7802      1.00000
     46      -5.7454      1.00000
     47      -4.9241      1.00000
     48      -4.4537      1.00000
     49      -4.3109      1.00000
     50      -3.2305      0.00000
     51      -3.0610      0.00000
     52      -1.1347      0.00000
     53      -0.9989      0.00000
     54      -0.8951      0.00000
     55      -0.4692      0.00000
     56       0.2689      0.00000
     57       0.7011      0.00000
     58       0.9648      0.00000
     59       1.1839      0.00000
     60       1.5556      0.00000
     61       1.7792      0.00000

 k-point     8 :       0.1842    0.0000    0.0000
  band No.  band energies     occupation 
      1     -31.9370      1.00000
      2     -29.7652      1.00000
      3     -29.7603      1.00000
      4     -22.0037      1.00000
      5     -20.2670      1.00000
      6     -20.2299      1.00000
      7     -19.3353      1.00000
      8     -19.2887      1.00000
      9     -19.0240      1.00000
     10     -17.9590      1.00000
     11     -17.3480      1.00000
     12     -17.1413      1.00000
     13     -16.7704      1.00000
     14     -16.6623      1.00000
     15     -16.4458      1.00000
     16     -15.3775      1.00000
     17     -14.2285      1.00000
     18     -13.8095      1.00000
     19     -13.7106      1.00000
     20     -13.4619      1.00000
     21     -13.4581      1.00000
     22     -13.2070      1.00000
     23     -13.1441      1.00000
     24     -12.2198      1.00000
     25     -11.6883      1.00000
     26     -11.6090      1.00000
     27     -10.1640      1.00000
     28     -10.1260      1.00000
     29     -10.1056      1.00000
     30     -10.0009      1.00000
     31      -9.9901      1.00000
     32      -9.2340      1.00000
     33      -9.2308      1.00000
     34      -8.6547      1.00000
     35      -8.6308      1.00000
     36      -8.4862      1.00000
     37      -8.4404      1.00000
     38      -8.0819      1.00000
     39      -7.9487      1.00000
     40      -7.9010      1.00000
     41      -7.8428      1.00000
     42      -7.8003      1.00000
     43      -7.2243      1.00000
     44      -6.1018      1.00000
     45      -5.7685      1.00000
     46      -5.7237      1.00000
     47      -4.9556      1.00000
     48      -4.5578      1.00000
     49      -4.3642      1.00000
     50      -3.1716      0.00000
     51      -2.9418      0.00000
     52      -1.1761      0.00000
     53      -0.9988      0.00000
     54      -0.8649      0.00000
     55      -0.4177      0.00000
     56       0.2880      0.00000
     57       0.6705      0.00000
     58       0.7174      0.00000
     59       1.1992      0.00000
     60       1.5038      0.00000
     61       1.7545      0.00000

 k-point     9 :       0.2105    0.0000    0.0000
  band No.  band energies     occupation 
      1     -31.9370      1.00000
      2     -29.7652      1.00000
      3     -29.7603      1.00000
      4     -22.0027      1.00000
      5     -20.2801      1.00000
      6     -20.2350      1.00000
      7     -19.3296      1.00000
      8     -19.2665      1.00000
      9     -18.9922      1.00000
     10     -18.0029      1.00000
     11     -17.4168      1.00000
     12     -17.1562      1.00000
     13     -16.7703      1.00000
     14     -16.6435      1.00000
     15     -16.3679      1.00000
     16     -15.3172      1.00000
     17     -14.3140      1.00000
     18     -13.8348      1.00000
     19     -13.7106      1.00000
     20     -13.4620      1.00000
     21     -13.4581      1.00000
     22     -13.1773      1.00000
     23     -13.1589      1.00000
     24     -12.2174      1.00000
     25     -11.6780      1.00000
     26     -11.5826      1.00000
     27     -10.1626      1.00000
     28     -10.1264      1.00000
     29     -10.1005      1.00000
     30     -10.0115      1.00000
     31      -9.9982      1.00000
     32      -9.2341      1.00000
     33      -9.2308      1.00000
     34      -8.6725      1.00000
     35      -8.6546      1.00000
     36      -8.5104      1.00000
     37      -8.4444      1.00000
     38      -8.0721      1.00000
     39      -7.9046      1.00000
     40      -7.9024      1.00000
     41      -7.8445      1.00000
     42      -7.7929      1.00000
     43      -7.1553      1.00000
     44      -6.1364      1.00000
     45      -5.7547      1.00000
     46      -5.7002      1.00000
     47      -4.9904      1.00000
     48      -4.6634      1.00000
     49      -4.4130      1.00000
     50      -3.1170      0.00000
     51      -2.8179      0.00000
     52      -1.2201      0.00000
     53      -0.9986      0.00000
     54      -0.8325      0.00000
     55      -0.3597      0.00000
     56       0.3099      0.00000
     57       0.5269      0.00000
     58       0.7358      0.00000
     59       1.2145      0.00000
     60       1.4624      0.00000
     61       1.7315      0.00000

 k-point    10 :       0.2368    0.0000    0.0000
  band No.  band energies     occupation 
      1     -31.9370      1.00000
      2     -29.7652      1.00000
      3     -29.7603      1.00000
      4     -22.0017      1.00000
      5     -20.2933      1.00000
      6     -20.2401      1.00000
      7     -19.3248      1.00000
      8     -19.2425      1.00000
      9     -18.9568      1.00000
     10     -18.0484      1.00000
     11     -17.4857      1.00000
     12     -17.1683      1.00000
     13     -16.7703      1.00000
     14     -16.6277      1.00000
     15     -16.2884      1.00000
     16     -15.2522      1.00000
     17     -14.4003      1.00000
     18     -13.8654      1.00000
     19     -13.7106      1.00000
     20     -13.4620      1.00000
     21     -13.4580      1.00000
     22     -13.2095      1.00000
     23     -13.1147      1.00000
     24     -12.2149      1.00000
     25     -11.6670      1.00000
     26     -11.5560      1.00000
     27     -10.1613      1.00000
     28     -10.1268      1.00000
     29     -10.0948      1.00000
     30     -10.0227      1.00000
     31     -10.0067      1.00000
     32      -9.2341      1.00000
     33      -9.2308      1.00000
     34      -8.7133      1.00000
     35      -8.6547      1.00000
     36      -8.5326      1.00000
     37      -8.4470      1.00000
     38      -8.0643      1.00000
     39      -7.9082      1.00000
     40      -7.8566      1.00000
     41      -7.8458      1.00000
     42      -7.7848      1.00000
     43      -7.0819      1.00000
     44      -6.1737      1.00000
     45      -5.7388      1.00000
     46      -5.6755      1.00000
     47      -5.0280      1.00000
     48      -4.7697      1.00000
     49      -4.4569      1.00000
     50      -3.0672      0.00000
     51      -2.6899      0.00000
     52      -1.2656      0.00000
     53      -0.9984      0.00000
     54      -0.7987      0.00000
     55      -0.2959      0.00000
     56       0.3346      0.00000
     57       0.3574      0.00000
     58       0.7563      0.00000
     59       1.2265      0.00000
     60       1.4161      0.00000
     61       1.6977      0.00000

 k-point    11 :       0.2632    0.0000    0.0000
  band No.  band energies     occupation 
      1     -31.9370      1.00000
      2     -29.7652      1.00000
      3     -29.7603      1.00000
      4     -22.0007      1.00000
      5     -20.3062      1.00000
      6     -20.2451      1.00000
      7     -19.3206      1.00000
      8     -19.2170      1.00000
      9     -18.9183      1.00000
     10     -18.0946      1.00000
     11     -17.5540      1.00000
     12     -17.1781      1.00000
     13     -16.7703      1.00000
     14     -16.6146      1.00000
     15     -16.2078      1.00000
     16     -15.1835      1.00000
     17     -14.4869      1.00000
     18     -13.9016      1.00000
     19     -13.7106      1.00000
     20     -13.4620      1.00000
     21     -13.4580      1.00000
     22     -13.2398      1.00000
     23     -13.0746      1.00000
     24     -12.2124      1.00000
     25     -11.6555      1.00000
     26     -11.5300      1.00000
     27     -10.1603      1.00000
     28     -10.1274      1.00000
     29     -10.0888      1.00000
     30     -10.0340      1.00000
     31     -10.0152      1.00000
     32      -9.2341      1.00000
     33      -9.2308      1.00000
     34      -8.7525      1.00000
     35      -8.6547      1.00000
     36      -8.5528      1.00000
     37      -8.4488      1.00000
     38      -8.0581      1.00000
     39      -7.9122      1.00000
     40      -7.8473      1.00000
     41      -7.8117      1.00000
     42      -7.7757      1.00000
     43      -7.0052      1.00000
     44      -6.2131      1.00000
     45      -5.7208      1.00000
     46      -5.6504      1.00000
     47      -5.0677      1.00000
     48      -4.8757      1.00000
     49      -4.4958      1.00000
     50      -3.0224      0.00000
     51      -2.5585      0.00000
     52      -1.3112      0.00000
     53      -0.9982      0.00000
     54      -0.7645      0.00000
     55      -0.2273      0.00000
     56       0.2015      0.00000
     57       0.3619      0.00000
     58       0.7777      0.00000
     59       1.2285      0.00000
     60       1.3857      0.00000
     61       1.6680      0.00000

 k-point    12 :       0.2895    0.0000    0.0000
  band No.  band energies     occupation 
      1     -31.9370      1.00000
      2     -29.7652      1.00000
      3     -29.7603      1.00000
      4     -21.9996      1.00000
      5     -20.3185      1.00000
      6     -20.2500      1.00000
      7     -19.3172      1.00000
      8     -19.1905      1.00000
      9     -18.8775      1.00000
     10     -18.1404      1.00000
     11     -17.6210      1.00000
     12     -17.1860      1.00000
     13     -16.7703      1.00000
     14     -16.6037      1.00000
     15     -16.1264      1.00000
     16     -15.1117      1.00000
     17     -14.5736      1.00000
     18     -13.9436      1.00000
     19     -13.7106      1.00000
     20     -13.4621      1.00000
     21     -13.4580      1.00000
     22     -13.2672      1.00000
     23     -13.0386      1.00000
     24     -12.2098      1.00000
     25     -11.6439      1.00000
     26     -11.5052      1.00000
     27     -10.1594      1.00000
     28     -10.1281      1.00000
     29     -10.0828      1.00000
     30     -10.0451      1.00000
     31     -10.0234      1.00000
     32      -9.2341      1.00000
     33      -9.2308      1.00000
     34      -8.7892      1.00000
     35      -8.6548      1.00000
     36      -8.5710      1.00000
     37      -8.4501      1.00000
     38      -8.0532      1.00000
     39      -7.9164      1.00000
     40      -7.8483      1.00000
     41      -7.7779      1.00000
     42      -7.7567      1.00000
     43      -6.9263      1.00000
     44      -6.2537      1.00000
     45      -5.7007      1.00000
     46      -5.6255      1.00000
     47      -5.1091      1.00000
     48      -4.9805      1.00000
     49      -4.5299      1.00000
     50      -2.9828      0.00000
     51      -2.4242      0.00000
     52      -1.3558      0.00000
     53      -0.9980      0.00000
     54      -0.7307      0.00000
     55      -0.1549      0.00000
     56       0.0491      0.00000
     57       0.3918      0.00000
     58       0.8001      0.00000
     59       1.2110      0.00000
     60       1.3749      0.00000
     61       1.6361      0.00000

 k-point    13 :       0.3158    0.0000    0.0000
  band No.  band energies     occupation 
      1     -31.9370      1.00000
      2     -29.7652      1.00000
      3     -29.7603      1.00000
      4     -21.9987      1.00000
      5     -20.3300      1.00000
      6     -20.2546      1.00000
      7     -19.3144      1.00000
      8     -19.1637      1.00000
      9     -18.8352      1.00000
     10     -18.1849      1.00000
     11     -17.6862      1.00000
     12     -17.1923      1.00000
     13     -16.7703      1.00000
     14     -16.5947      1.00000
     15     -16.0449      1.00000
     16     -15.0378      1.00000
     17     -14.6598      1.00000
     18     -13.9913      1.00000
     19     -13.7106      1.00000
     20     -13.4621      1.00000
     21     -13.4580      1.00000
     22     -13.2913      1.00000
     23     -13.0069      1.00000
     24     -12.2074      1.00000
     25     -11.6324      1.00000
     26     -11.4820      1.00000
     27     -10.1587      1.00000
     28     -10.1290      1.00000
     29     -10.0771      1.00000
     30     -10.0557      1.00000
     31     -10.0310      1.00000
     32      -9.2342      1.00000
     33      -9.2308      1.00000
     34      -8.8230      1.00000
     35      -8.6549      1.00000
     36      -8.5870      1.00000
     37      -8.4512      1.00000
     38      -8.0494      1.00000
     39      -7.9205      1.00000
     40      -7.8492      1.00000
     41      -7.7661      1.00000
     42      -7.7176      1.00000
     43      -6.8463      1.00000
     44      -6.2943      1.00000
     45      -5.6785      1.00000
     46      -5.6014      1.00000
     47      -5.1516      1.00000
     48      -5.0832      1.00000
     49      -4.5592      1.00000
     50      -2.9482      0.00000
     51      -2.2873      0.00000
     52      -1.3982      0.00000
     53      -0.9978      0.00000
     54      -0.6984      0.00000
     55      -0.1090      0.00000
     56      -0.0801      0.00000
     57       0.4241      0.00000
     58       0.8220      0.00000
     59       1.1784      0.00000
     60       1.3840      0.00000
     61       1.6057      0.00000

 k-point    14 :       0.3421    0.0000    0.0000
  band No.  band energies     occupation 
      1     -31.9370      1.00000
      2     -29.7652      1.00000
      3     -29.7603      1.00000
      4     -21.9977      1.00000
      5     -20.3403      1.00000
      6     -20.2588      1.00000
      7     -19.3121      1.00000
      8     -19.1372      1.00000
      9     -18.7924      1.00000
     10     -18.2273      1.00000
     11     -17.7486      1.00000
     12     -17.1974      1.00000
     13     -16.7703      1.00000
     14     -16.5875      1.00000
     15     -15.9638      1.00000
     16     -14.9623      1.00000
     17     -14.7449      1.00000
     18     -14.0443      1.00000
     19     -13.7106      1.00000
     20     -13.4621      1.00000
     21     -13.4580      1.00000
     22     -13.3117      1.00000
     23     -12.9795      1.00000
     24     -12.2052      1.00000
     25     -11.6215      1.00000
     26     -11.4611      1.00000
     27     -10.1581      1.00000
     28     -10.1300      1.00000
     29     -10.0727      1.00000
     30     -10.0648      1.00000
     31     -10.0374      1.00000
     32      -9.2342      1.00000
     33      -9.2308      1.00000
     34      -8.8532      1.00000
     35      -8.6550      1.00000
     36      -8.6009      1.00000
     37      -8.4519      1.00000
     38      -8.0464      1.00000
     39      -7.9244      1.00000
     40      -7.8499      1.00000
     41      -7.7585      1.00000
     42      -7.6770      1.00000
     43      -6.7665      1.00000
     44      -6.3339      1.00000
     45      -5.6540      1.00000
     46      -5.5789      1.00000
     47      -5.1947      1.00000
     48      -5.1823      1.00000
     49      -4.5840      1.00000
     50      -2.9186      0.00000
     51      -2.1484      0.00000
     52      -1.4374      0.00000
     53      -0.9977      0.00000
     54      -0.6684      0.00000
     55      -0.2651      0.00000
     56      -0.0048      0.00000
     57       0.4586      0.00000
     58       0.8413      0.00000
     59       1.1393      0.00000
     60       1.3964      0.00000
     61       1.5759      0.00000

 k-point    15 :       0.3684    0.0000    0.0000
  band No.  band energies     occupation 
      1     -31.9370      1.00000
      2     -29.7652      1.00000
      3     -29.7603      1.00000
      4     -21.9969      1.00000
      5     -20.3494      1.00000
      6     -20.2624      1.00000
      7     -19.3103      1.00000
      8     -19.1117      1.00000
      9     -18.7504      1.00000
     10     -18.2664      1.00000
     11     -17.8071      1.00000
     12     -17.2014      1.00000
     13     -16.7703      1.00000
     14     -16.5816      1.00000
     15     -15.8841      1.00000
     16     -14.8861      1.00000
     17     -14.8279      1.00000
     18     -14.1018      1.00000
     19     -13.7107      1.00000
     20     -13.4622      1.00000
     21     -13.4580      1.00000
     22     -13.3285      1.00000
     23     -12.9563      1.00000
     24     -12.2031      1.00000
     25     -11.6114      1.00000
     26     -11.4427      1.00000
     27     -10.1577      1.00000
     28     -10.1313      1.00000
     29     -10.0754      1.00000
     30     -10.0672      1.00000
     31     -10.0419      1.00000
     32      -9.2342      1.00000
     33      -9.2308      1.00000
     34      -8.8796      1.00000
     35      -8.6551      1.00000
     36      -8.6127      1.00000
     37      -8.4526      1.00000
     38      -8.0441      1.00000
     39      -7.9279      1.00000
     40      -7.8504      1.00000
     41      -7.7523      1.00000
     42      -7.6393      1.00000
     43      -6.6887      1.00000
     44      -6.3711      1.00000
     45      -5.6276      1.00000
     46      -5.5585      1.00000
     47      -5.2768      1.00000
     48      -5.2375      1.00000
     49      -4.6045      1.00000
     50      -2.8939      0.00000
     51      -2.0081      0.00000
     52      -1.4724      0.00000
     53      -0.9975      0.00000
     54      -0.6417      0.00000
     55      -0.4195      0.00000
     56       0.0688      0.00000
     57       0.4952      0.00000
     58       0.8543      0.00000
     59       1.1052      0.00000
     60       1.4039      0.00000
     61       1.5589      0.00000

 k-point    16 :       0.3947    0.0000    0.0000
  band No.  band energies     occupation 
      1     -31.9370      1.00000
      2     -29.7652      1.00000
      3     -29.7603      1.00000
      4     -21.9962      1.00000
      5     -20.3570      1.00000
      6     -20.2656      1.00000
      7     -19.3089      1.00000
      8     -19.0884      1.00000
      9     -18.7106      1.00000
     10     -18.3011      1.00000
     11     -17.8602      1.00000
     12     -17.2044      1.00000
     13     -16.7702      1.00000
     14     -16.5771      1.00000
     15     -15.8075      1.00000
     16     -14.9074      1.00000
     17     -14.8102      1.00000
     18     -14.1627      1.00000
     19     -13.7107      1.00000
     20     -13.4622      1.00000
     21     -13.4580      1.00000
     22     -13.3418      1.00000
     23     -12.9374      1.00000
     24     -12.2014      1.00000
     25     -11.6026      1.00000
     26     -11.4271      1.00000
     27     -10.1575      1.00000
     28     -10.1327      1.00000
     29     -10.0820      1.00000
     30     -10.0666      1.00000
     31     -10.0437      1.00000
     32      -9.2342      1.00000
     33      -9.2308      1.00000
     34      -8.9017      1.00000
     35      -8.6553      1.00000
     36      -8.6223      1.00000
     37      -8.4530      1.00000
     38      -8.0423      1.00000
     39      -7.9309      1.00000
     40      -7.8508      1.00000
     41      -7.7470      1.00000
     42      -7.6057      1.00000
     43      -6.6153      1.00000
     44      -6.4046      1.00000
     45      -5.5992      1.00000
     46      -5.5410      1.00000
     47      -5.3636      1.00000
     48      -5.2800      1.00000
     49      -4.6210      1.00000
     50      -2.8740      0.00000
     51      -1.8674      0.00000
     52      -1.5023      0.00000
     53      -0.9974      0.00000
     54      -0.6206      0.00000
     55      -0.5699      0.00000
     56       0.1383      0.00000
     57       0.5333      0.00000
     58       0.8555      0.00000
     59       1.0825      0.00000
     60       1.3954      0.00000
     61       1.5618      0.00000

 k-point    17 :       0.4211    0.0000    0.0000
  band No.  band energies     occupation 
      1     -31.9370      1.00000
      2     -29.7652      1.00000
      3     -29.7603      1.00000
      4     -21.9956      1.00000
      5     -20.3631      1.00000
      6     -20.2680      1.00000
      7     -19.3078      1.00000
      8     -19.0683      1.00000
      9     -18.6752      1.00000
     10     -18.3302      1.00000
     11     -17.9060      1.00000
     12     -17.2067      1.00000
     13     -16.7702      1.00000
     14     -16.5737      1.00000
     15     -15.7363      1.00000
     16     -14.9807      1.00000
     17     -14.7361      1.00000
     18     -14.2255      1.00000
     19     -13.7107      1.00000
     20     -13.4622      1.00000
     21     -13.4580      1.00000
     22     -13.3518      1.00000
     23     -12.9228      1.00000
     24     -12.1999      1.00000
     25     -11.5953      1.00000
     26     -11.4148      1.00000
     27     -10.1573      1.00000
     28     -10.1342      1.00000
     29     -10.0874      1.00000
     30     -10.0677      1.00000
     31     -10.0431      1.00000
     32      -9.2342      1.00000
     33      -9.2308      1.00000
     34      -8.9192      1.00000
     35      -8.6555      1.00000
     36      -8.6296      1.00000
     37      -8.4534      1.00000
     38      -8.0411      1.00000
     39      -7.9334      1.00000
     40      -7.8511      1.00000
     41      -7.7428      1.00000
     42      -7.5778      1.00000
     43      -6.5494      1.00000
     44      -6.4327      1.00000
     45      -5.5695      1.00000
     46      -5.5270      1.00000
     47      -5.4396      1.00000
     48      -5.3211      1.00000
     49      -4.6336      1.00000
     50      -2.8586      0.00000
     51      -1.7283      0.00000
     52      -1.5263      0.00000
     53      -0.9973      0.00000
     54      -0.7222      0.00000
     55      -0.5980      0.00000
     56       0.1996      0.00000
     57       0.5723      0.00000
     58       0.8416      0.00000
     59       1.0760      0.00000
     60       1.3730      0.00000
     61       1.5811      0.00000

 k-point    18 :       0.4474    0.0000    0.0000
  band No.  band energies     occupation 
      1     -31.9370      1.00000
      2     -29.7652      1.00000
      3     -29.7603      1.00000
      4     -21.9952      1.00000
      5     -20.3675      1.00000
      6     -20.2698      1.00000
      7     -19.3071      1.00000
      8     -19.0527      1.00000
      9     -18.6467      1.00000
     10     -18.3523      1.00000
     11     -17.9418      1.00000
     12     -17.2083      1.00000
     13     -16.7702      1.00000
     14     -16.5714      1.00000
     15     -15.6752      1.00000
     16     -15.0433      1.00000
     17     -14.6666      1.00000
     18     -14.2870      1.00000
     19     -13.7107      1.00000
     20     -13.4622      1.00000
     21     -13.4580      1.00000
     22     -13.3588      1.00000
     23     -12.9123      1.00000
     24     -12.1989      1.00000
     25     -11.5899      1.00000
     26     -11.4058      1.00000
     27     -10.1572      1.00000
     28     -10.1355      1.00000
     29     -10.0912      1.00000
     30     -10.0695      1.00000
     31     -10.0417      1.00000
     32      -9.2342      1.00000
     33      -9.2308      1.00000
     34      -8.9319      1.00000
     35      -8.6558      1.00000
     36      -8.6348      1.00000
     37      -8.4536      1.00000
     38      -8.0402      1.00000
     39      -7.9352      1.00000
     40      -7.8513      1.00000
     41      -7.7397      1.00000
     42      -7.5566      1.00000
     43      -6.4958      1.00000
     44      -6.4542      1.00000
     45      -5.5393      1.00000
     46      -5.5184      1.00000
     47      -5.4988      1.00000
     48      -5.3596      1.00000
     49      -4.6424      1.00000
     50      -2.8477      0.00000
     51      -1.5951      0.00000
     52      -1.5440      0.00000
     53      -0.9972      0.00000
     54      -0.8614      0.00000
     55      -0.5848      0.00000
     56       0.2486      0.00000
     57       0.6106      0.00000
     58       0.8155      0.00000
     59       1.0814      0.00000
     60       1.3477      0.00000
     61       1.6133      0.00000

 k-point    19 :       0.4737    0.0000    0.0000
  band No.  band energies     occupation 
      1     -31.9370      1.00000
      2     -29.7652      1.00000
      3     -29.7603      1.00000
      4     -21.9949      1.00000
      5     -20.3702      1.00000
      6     -20.2709      1.00000
      7     -19.3067      1.00000
      8     -19.0427      1.00000
      9     -18.6279      1.00000
     10     -18.3661      1.00000
     11     -17.9650      1.00000
     12     -17.2092      1.00000
     13     -16.7702      1.00000
     14     -16.5700      1.00000
     15     -15.6317      1.00000
     16     -15.0877      1.00000
     17     -14.6095      1.00000
     18     -14.3395      1.00000
     19     -13.7107      1.00000
     20     -13.4623      1.00000
     21     -13.4580      1.00000
     22     -13.3629      1.00000
     23     -12.9061      1.00000
     24     -12.1983      1.00000
     25     -11.5866      1.00000
     26     -11.4004      1.00000
     27     -10.1571      1.00000
     28     -10.1364      1.00000
     29     -10.0934      1.00000
     30     -10.0709      1.00000
     31     -10.0404      1.00000
     32      -9.2342      1.00000
     33      -9.2308      1.00000
     34      -8.9397      1.00000
     35      -8.6560      1.00000
     36      -8.6378      1.00000
     37      -8.4538      1.00000
     38      -8.0397      1.00000
     39      -7.9363      1.00000
     40      -7.8514      1.00000
     41      -7.7378      1.00000
     42      -7.5434      1.00000
     43      -6.4676      1.00000
     44      -6.4600      1.00000
     45      -5.5427      1.00000
     46      -5.5120      1.00000
     47      -5.5082      1.00000
     48      -5.3920      1.00000
     49      -4.6477      1.00000
     50      -2.8412      0.00000
     51      -1.5548      0.00000
     52      -1.4815      0.00000
     53      -0.9972      0.00000
     54      -0.9789      0.00000
     55      -0.5765      0.00000
     56       0.2809      0.00000
     57       0.6437      0.00000
     58       0.7872      0.00000
     59       1.0902      0.00000
     60       1.3271      0.00000
     61       1.6332      0.00000

 k-point    20 :       0.5000    0.0000    0.0000
  band No.  band energies     occupation 
      1     -31.9370      1.00000
      2     -29.7652      1.00000
      3     -29.7603      1.00000
      4     -21.9948      1.00000
      5     -20.3711      1.00000
      6     -20.2713      1.00000
      7     -19.3066      1.00000
      8     -19.0393      1.00000
      9     -18.6213      1.00000
     10     -18.3708      1.00000
     11     -17.9730      1.00000
     12     -17.2095      1.00000
     13     -16.7702      1.00000
     14     -16.5695      1.00000
     15     -15.6155      1.00000
     16     -15.1042      1.00000
     17     -14.5843      1.00000
     18     -14.3631      1.00000
     19     -13.7107      1.00000
     20     -13.4623      1.00000
     21     -13.4580      1.00000
     22     -13.3643      1.00000
     23     -12.9040      1.00000
     24     -12.1980      1.00000
     25     -11.5854      1.00000
     26     -11.3986      1.00000
     27     -10.1571      1.00000
     28     -10.1368      1.00000
     29     -10.0941      1.00000
     30     -10.0714      1.00000
     31     -10.0400      1.00000
     32      -9.2342      1.00000
     33      -9.2308      1.00000
     34      -8.9422      1.00000
     35      -8.6561      1.00000
     36      -8.6388      1.00000
     37      -8.4538      1.00000
     38      -8.0395      1.00000
     39      -7.9367      1.00000
     40      -7.8515      1.00000
     41      -7.7372      1.00000
     42      -7.5389      1.00000
     43      -6.4722      1.00000
     44      -6.4473      1.00000
     45      -5.5565      1.00000
     46      -5.5065      1.00000
     47      -5.4985      1.00000
     48      -5.4071      1.00000
     49      -4.6494      1.00000
     50      -2.8390      0.00000
     51      -1.5584      0.00000
     52      -1.4290      0.00000
     53      -1.0327      0.00000
     54      -0.9972      0.00000
     55      -0.5737      0.00000
     56       0.2922      0.00000
     57       0.6591      0.00000
     58       0.7731      0.00000
     59       1.0944      0.00000
     60       1.3187      0.00000
     61       1.6311      0.00000

 k-point    21 :       0.0000    0.5000    0.0000
  band No.  band energies     occupation 
      1     -31.9370      1.00000
      2     -29.7652      1.00000
      3     -29.7603      1.00000
      4     -21.9949      1.00000
      5     -20.3694      1.00000
      6     -20.2732      1.00000
      7     -19.3041      1.00000
      8     -19.0409      1.00000
      9     -18.6222      1.00000
     10     -18.3726      1.00000
     11     -17.9730      1.00000
     12     -17.2050      1.00000
     13     -16.7699      1.00000
     14     -16.5705      1.00000
     15     -15.6183      1.00000
     16     -15.1048      1.00000
     17     -14.5817      1.00000
     18     -14.3652      1.00000
     19     -13.7106      1.00000
     20     -13.4620      1.00000
     21     -13.4587      1.00000
     22     -13.3629      1.00000
     23     -12.9040      1.00000
     24     -12.1978      1.00000
     25     -11.5824      1.00000
     26     -11.4016      1.00000
     27     -10.1518      1.00000
     28     -10.1364      1.00000
     29     -10.0967      1.00000
     30     -10.0803      1.00000
     31     -10.0357      1.00000
     32      -9.2347      1.00000
     33      -9.2309      1.00000
     34      -8.9296      1.00000
     35      -8.6675      1.00000
     36      -8.6326      1.00000
     37      -8.4723      1.00000
     38      -8.0218      1.00000
     39      -7.9417      1.00000
     40      -7.8425      1.00000
     41      -7.7392      1.00000
     42      -7.5421      1.00000
     43      -6.4750      1.00000
     44      -6.4507      1.00000
     45      -5.5580      1.00000
     46      -5.5059      1.00000
     47      -5.4948      1.00000
     48      -5.4128      1.00000
     49      -4.6426      1.00000
     50      -2.8378      0.00000
     51      -1.5553      0.00000
     52      -1.4299      0.00000
     53      -1.0356      0.00000
     54      -0.9929      0.00000
     55      -0.5812      0.00000
     56       0.2881      0.00000
     57       0.6865      0.00000
     58       0.7416      0.00000
     59       1.0982      0.00000
     60       1.3292      0.00000
     61       1.6123      0.00000

 k-point    22 :       0.0000    0.4737    0.0000
  band No.  band energies     occupation 
      1     -31.9370      1.00000
      2     -29.7652      1.00000
      3     -29.7603      1.00000
      4     -21.9950      1.00000
      5     -20.3685      1.00000
      6     -20.2729      1.00000
      7     -19.3042      1.00000
      8     -19.0443      1.00000
      9     -18.6288      1.00000
     10     -18.3678      1.00000
     11     -17.9650      1.00000
     12     -17.2047      1.00000
     13     -16.7699      1.00000
     14     -16.5710      1.00000
     15     -15.6344      1.00000
     16     -15.0884      1.00000
     17     -14.6073      1.00000
     18     -14.3411      1.00000
     19     -13.7106      1.00000
     20     -13.4620      1.00000
     21     -13.4586      1.00000
     22     -13.3615      1.00000
     23     -12.9061      1.00000
     24     -12.1980      1.00000
     25     -11.5836      1.00000
     26     -11.4034      1.00000
     27     -10.1518      1.00000
     28     -10.1361      1.00000
     29     -10.0961      1.00000
     30     -10.0799      1.00000
     31     -10.0359      1.00000
     32      -9.2347      1.00000
     33      -9.2309      1.00000
     34      -8.9270      1.00000
     35      -8.6671      1.00000
     36      -8.6319      1.00000
     37      -8.4723      1.00000
     38      -8.0220      1.00000
     39      -7.9413      1.00000
     40      -7.8425      1.00000
     41      -7.7398      1.00000
     42      -7.5466      1.00000
     43      -6.4705      1.00000
     44      -6.4633      1.00000
     45      -5.5441      1.00000
     46      -5.5095      1.00000
     47      -5.5078      1.00000
     48      -5.3965      1.00000
     49      -4.6409      1.00000
     50      -2.8400      0.00000
     51      -1.5517      0.00000
     52      -1.4826      0.00000
     53      -0.9930      0.00000
     54      -0.9815      0.00000
     55      -0.5840      0.00000
     56       0.2769      0.00000
     57       0.6616      0.00000
     58       0.7653      0.00000
     59       1.0941      0.00000
     60       1.3374      0.00000
     61       1.6131      0.00000

 k-point    23 :       0.0000    0.4474    0.0000
  band No.  band energies     occupation 
      1     -31.9370      1.00000
      2     -29.7652      1.00000
      3     -29.7603      1.00000
      4     -21.9952      1.00000
      5     -20.3658      1.00000
      6     -20.2718      1.00000
      7     -19.3047      1.00000
      8     -19.0543      1.00000
      9     -18.6475      1.00000
     10     -18.3540      1.00000
     11     -17.9419      1.00000
     12     -17.2038      1.00000
     13     -16.7699      1.00000
     14     -16.5723      1.00000
     15     -15.6778      1.00000
     16     -15.0441      1.00000
     17     -14.6651      1.00000
     18     -14.2879      1.00000
     19     -13.7106      1.00000
     20     -13.4620      1.00000
     21     -13.4586      1.00000
     22     -13.3574      1.00000
     23     -12.9124      1.00000
     24     -12.1987      1.00000
     25     -11.5869      1.00000
     26     -11.4089      1.00000
     27     -10.1517      1.00000
     28     -10.1351      1.00000
     29     -10.0946      1.00000
     30     -10.0787      1.00000
     31     -10.0363      1.00000
     32      -9.2346      1.00000
     33      -9.2309      1.00000
     34      -8.9193      1.00000
     35      -8.6659      1.00000
     36      -8.6299      1.00000
     37      -8.4721      1.00000
     38      -8.0226      1.00000
     39      -7.9400      1.00000
     40      -7.8424      1.00000
     41      -7.7417      1.00000
     42      -7.5599      1.00000
     43      -6.4992      1.00000
     44      -6.4568      1.00000
     45      -5.5380      1.00000
     46      -5.5164      1.00000
     47      -5.5018      1.00000
     48      -5.3628      1.00000
     49      -4.6357      1.00000
     50      -2.8465      0.00000
     51      -1.5965      0.00000
     52      -1.5409      0.00000
     53      -0.9930      0.00000
     54      -0.8636      0.00000
     55      -0.5924      0.00000
     56       0.2457      0.00000
     57       0.6210      0.00000
     58       0.8014      0.00000
     59       1.0847      0.00000
     60       1.3567      0.00000
     61       1.6067      0.00000

 k-point    24 :       0.0000    0.4211    0.0000
  band No.  band energies     occupation 
      1     -31.9370      1.00000
      2     -29.7652      1.00000
      3     -29.7603      1.00000
      4     -21.9956      1.00000
      5     -20.3614      1.00000
      6     -20.2700      1.00000
      7     -19.3054      1.00000
      8     -19.0699      1.00000
      9     -18.6760      1.00000
     10     -18.3319      1.00000
     11     -17.9061      1.00000
     12     -17.2023      1.00000
     13     -16.7699      1.00000
     14     -16.5747      1.00000
     15     -15.7387      1.00000
     16     -14.9816      1.00000
     17     -14.7349      1.00000
     18     -14.2260      1.00000
     19     -13.7106      1.00000
     20     -13.4620      1.00000
     21     -13.4586      1.00000
     22     -13.3505      1.00000
     23     -12.9229      1.00000
     24     -12.1997      1.00000
     25     -11.5923      1.00000
     26     -11.4178      1.00000
     27     -10.1516      1.00000
     28     -10.1338      1.00000
     29     -10.0924      1.00000
     30     -10.0768      1.00000
     31     -10.0366      1.00000
     32      -9.2346      1.00000
     33      -9.2309      1.00000
     34      -8.9065      1.00000
     35      -8.6641      1.00000
     36      -8.6263      1.00000
     37      -8.4719      1.00000
     38      -8.0236      1.00000
     39      -7.9381      1.00000
     40      -7.8423      1.00000
     41      -7.7447      1.00000
     42      -7.5811      1.00000
     43      -6.5528      1.00000
     44      -6.4353      1.00000
     45      -5.5689      1.00000
     46      -5.5257      1.00000
     47      -5.4421      1.00000
     48      -5.3236      1.00000
     49      -4.6269      1.00000
     50      -2.8574      0.00000
     51      -1.7298      0.00000
     52      -1.5233      0.00000
     53      -0.9931      0.00000
     54      -0.7236      0.00000
     55      -0.6060      0.00000
     56       0.1965      0.00000
     57       0.5791      0.00000
     58       0.8320      0.00000
     59       1.0781      0.00000
     60       1.3820      0.00000
     61       1.5809      0.00000

 k-point    25 :       0.0000    0.3947    0.0000
  band No.  band energies     occupation 
      1     -31.9370      1.00000
      2     -29.7652      1.00000
      3     -29.7603      1.00000
      4     -21.9962      1.00000
      5     -20.3553      1.00000
      6     -20.2675      1.00000
      7     -19.3064      1.00000
      8     -19.0900      1.00000
      9     -18.7114      1.00000
     10     -18.3028      1.00000
     11     -17.8604      1.00000
     12     -17.2001      1.00000
     13     -16.7699      1.00000
     14     -16.5781      1.00000
     15     -15.8097      1.00000
     16     -14.9085      1.00000
     17     -14.8093      1.00000
     18     -14.1629      1.00000
     19     -13.7106      1.00000
     20     -13.4620      1.00000
     21     -13.4585      1.00000
     22     -13.3406      1.00000
     23     -12.9376      1.00000
     24     -12.2012      1.00000
     25     -11.5995      1.00000
     26     -11.4302      1.00000
     27     -10.1516      1.00000
     28     -10.1322      1.00000
     29     -10.0901      1.00000
     30     -10.0738      1.00000
     31     -10.0361      1.00000
     32      -9.2345      1.00000
     33      -9.2309      1.00000
     34      -8.8888      1.00000
     35      -8.6622      1.00000
     36      -8.6207      1.00000
     37      -8.4716      1.00000
     38      -8.0250      1.00000
     39      -7.9354      1.00000
     40      -7.8421      1.00000
     41      -7.7489      1.00000
     42      -7.6091      1.00000
     43      -6.6186      1.00000
     44      -6.4071      1.00000
     45      -5.5991      1.00000
     46      -5.5399      1.00000
     47      -5.3660      1.00000
     48      -5.2819      1.00000
     49      -4.6144      1.00000
     50      -2.8728      0.00000
     51      -1.8690      0.00000
     52      -1.4993      0.00000
     53      -0.9932      0.00000
     54      -0.6251      0.00000
     55      -0.5748      0.00000
     56       0.1356      0.00000
     57       0.5382      0.00000
     58       0.8498      0.00000
     59       1.0831      0.00000
     60       1.4011      0.00000
     61       1.5623      0.00000

 k-point    26 :       0.0000    0.3684    0.0000
  band No.  band energies     occupation 
      1     -31.9370      1.00000
      2     -29.7652      1.00000
      3     -29.7603      1.00000
      4     -21.9969      1.00000
      5     -20.3477      1.00000
      6     -20.2644      1.00000
      7     -19.3079      1.00000
      8     -19.1133      1.00000
      9     -18.7511      1.00000
     10     -18.2681      1.00000
     11     -17.8073      1.00000
     12     -17.1971      1.00000
     13     -16.7699      1.00000
     14     -16.5826      1.00000
     15     -15.8863      1.00000
     16     -14.8854      1.00000
     17     -14.8291      1.00000
     18     -14.1016      1.00000
     19     -13.7106      1.00000
     20     -13.4619      1.00000
     21     -13.4585      1.00000
     22     -13.3274      1.00000
     23     -12.9565      1.00000
     24     -12.2029      1.00000
     25     -11.6083      1.00000
     26     -11.4457      1.00000
     27     -10.1518      1.00000
     28     -10.1306      1.00000
     29     -10.0889      1.00000
     30     -10.0690      1.00000
     31     -10.0344      1.00000
     32      -9.2345      1.00000
     33      -9.2309      1.00000
     34      -8.8666      1.00000
     35      -8.6605      1.00000
     36      -8.6129      1.00000
     37      -8.4711      1.00000
     38      -8.0270      1.00000
     39      -7.9321      1.00000
     40      -7.8419      1.00000
     41      -7.7541      1.00000
     42      -7.6427      1.00000
     43      -6.6921      1.00000
     44      -6.3735      1.00000
     45      -5.6276      1.00000
     46      -5.5575      1.00000
     47      -5.2794      1.00000
     48      -5.2389      1.00000
     49      -4.5981      1.00000
     50      -2.8929      0.00000
     51      -2.0097      0.00000
     52      -1.4695      0.00000
     53      -0.9933      0.00000
     54      -0.6481      0.00000
     55      -0.4224      0.00000
     56       0.0664      0.00000
     57       0.4987      0.00000
     58       0.8515      0.00000
     59       1.1039      0.00000
     60       1.4074      0.00000
     61       1.5637      0.00000

 k-point    27 :       0.0000    0.3421    0.0000
  band No.  band energies     occupation 
      1     -31.9370      1.00000
      2     -29.7652      1.00000
      3     -29.7603      1.00000
      4     -21.9978      1.00000
      5     -20.3386      1.00000
      6     -20.2607      1.00000
      7     -19.3097      1.00000
      8     -19.1387      1.00000
      9     -18.7932      1.00000
     10     -18.2289      1.00000
     11     -17.7488      1.00000
     12     -17.1932      1.00000
     13     -16.7699      1.00000
     14     -16.5884      1.00000
     15     -15.9658      1.00000
     16     -14.9617      1.00000
     17     -14.7462      1.00000
     18     -14.0438      1.00000
     19     -13.7106      1.00000
     20     -13.4619      1.00000
     21     -13.4584      1.00000
     22     -13.3108      1.00000
     23     -12.9797      1.00000
     24     -12.2050      1.00000
     25     -11.6183      1.00000
     26     -11.4641      1.00000
     27     -10.1522      1.00000
     28     -10.1291      1.00000
     29     -10.0897      1.00000
     30     -10.0621      1.00000
     31     -10.0309      1.00000
     32      -9.2344      1.00000
     33      -9.2309      1.00000
     34      -8.8400      1.00000
     35      -8.6590      1.00000
     36      -8.6028      1.00000
     37      -8.4706      1.00000
     38      -8.0296      1.00000
     39      -7.9283      1.00000
     40      -7.8416      1.00000
     41      -7.7602      1.00000
     42      -7.6807      1.00000
     43      -6.7698      1.00000
     44      -6.3361      1.00000
     45      -5.6543      1.00000
     46      -5.5779      1.00000
     47      -5.1974      1.00000
     48      -5.1835      1.00000
     49      -4.5777      1.00000
     50      -2.9176      0.00000
     51      -2.1500      0.00000
     52      -1.4346      0.00000
     53      -0.9934      0.00000
     54      -0.6749      0.00000
     55      -0.2676      0.00000
     56      -0.0069      0.00000
     57       0.4613      0.00000
     58       0.8416      0.00000
     59       1.1369      0.00000
     60       1.3945      0.00000
     61       1.5813      0.00000

 k-point    28 :       0.0000    0.3158    0.0000
  band No.  band energies     occupation 
      1     -31.9370      1.00000
      2     -29.7652      1.00000
      3     -29.7603      1.00000
      4     -21.9987      1.00000
      5     -20.3282      1.00000
      6     -20.2565      1.00000
      7     -19.3120      1.00000
      8     -19.1652      1.00000
      9     -18.8360      1.00000
     10     -18.1865      1.00000
     11     -17.6864      1.00000
     12     -17.1882      1.00000
     13     -16.7699      1.00000
     14     -16.5957      1.00000
     15     -16.0468      1.00000
     16     -15.0373      1.00000
     17     -14.6611      1.00000
     18     -13.9906      1.00000
     19     -13.7106      1.00000
     20     -13.4619      1.00000
     21     -13.4584      1.00000
     22     -13.2905      1.00000
     23     -13.0072      1.00000
     24     -12.2073      1.00000
     25     -11.6293      1.00000
     26     -11.4851      1.00000
     27     -10.1528      1.00000
     28     -10.1279      1.00000
     29     -10.0923      1.00000
     30     -10.0534      1.00000
     31     -10.0259      1.00000
     32      -9.2343      1.00000
     33      -9.2309      1.00000
     34      -8.8093      1.00000
     35      -8.6578      1.00000
     36      -8.5904      1.00000
     37      -8.4698      1.00000
     38      -8.0328      1.00000
     39      -7.9240      1.00000
     40      -7.8413      1.00000
     41      -7.7672      1.00000
     42      -7.7217      1.00000
     43      -6.8495      1.00000
     44      -6.2964      1.00000
     45      -5.6788      1.00000
     46      -5.6004      1.00000
     47      -5.1531      1.00000
     48      -5.0853      1.00000
     49      -4.5531      1.00000
     50      -2.9473      0.00000
     51      -2.2889      0.00000
     52      -1.3955      0.00000
     53      -0.9936      0.00000
     54      -0.7050      0.00000
     55      -0.1123      0.00000
     56      -0.0820      0.00000
     57       0.4262      0.00000
     58       0.8220      0.00000
     59       1.1750      0.00000
     60       1.3790      0.00000
     61       1.6120      0.00000

 k-point    29 :       0.0000    0.2895    0.0000
  band No.  band energies     occupation 
      1     -31.9370      1.00000
      2     -29.7652      1.00000
      3     -29.7603      1.00000
      4     -21.9997      1.00000
      5     -20.3167      1.00000
      6     -20.2520      1.00000
      7     -19.3148      1.00000
      8     -19.1921      1.00000
      9     -18.8782      1.00000
     10     -18.1419      1.00000
     11     -17.6213      1.00000
     12     -17.1820      1.00000
     13     -16.7699      1.00000
     14     -16.6046      1.00000
     15     -16.1282      1.00000
     16     -15.1114      1.00000
     17     -14.5749      1.00000
     18     -13.9427      1.00000
     19     -13.7107      1.00000
     20     -13.4619      1.00000
     21     -13.4583      1.00000
     22     -13.2666      1.00000
     23     -13.0389      1.00000
     24     -12.2097      1.00000
     25     -11.6407      1.00000
     26     -11.5083      1.00000
     27     -10.1537      1.00000
     28     -10.1269      1.00000
     29     -10.0961      1.00000
     30     -10.0434      1.00000
     31     -10.0196      1.00000
     32      -9.2343      1.00000
     33      -9.2308      1.00000
     34      -8.7750      1.00000
     35      -8.6568      1.00000
     36      -8.5757      1.00000
     37      -8.4687      1.00000
     38      -8.0370      1.00000
     39      -7.9196      1.00000
     40      -7.8409      1.00000
     41      -7.7765      1.00000
     42      -7.7632      1.00000
     43      -6.9295      1.00000
     44      -6.2555      1.00000
     45      -5.7012      1.00000
     46      -5.6246      1.00000
     47      -5.1103      1.00000
     48      -4.9828      1.00000
     49      -4.5240      1.00000
     50      -2.9819      0.00000
     51      -2.4258      0.00000
     52      -1.3531      0.00000
     53      -0.9938      0.00000
     54      -0.7372      0.00000
     55      -0.1565      0.00000
     56       0.0443      0.00000
     57       0.3934      0.00000
     58       0.8005      0.00000
     59       1.2085      0.00000
     60       1.3701      0.00000
     61       1.6392      0.00000

 k-point    30 :       0.0000    0.2632    0.0000
  band No.  band energies     occupation 
      1     -31.9370      1.00000
      2     -29.7652      1.00000
      3     -29.7603      1.00000
      4     -22.0007      1.00000
      5     -20.3044      1.00000
      6     -20.2471      1.00000
      7     -19.3183      1.00000
      8     -19.2185      1.00000
      9     -18.9190      1.00000
     10     -18.0960      1.00000
     11     -17.5542      1.00000
     12     -17.1743      1.00000
     13     -16.7699      1.00000
     14     -16.6155      1.00000
     15     -16.2094      1.00000
     16     -15.1832      1.00000
     17     -14.4883      1.00000
     18     -13.9005      1.00000
     19     -13.7107      1.00000
     20     -13.4619      1.00000
     21     -13.4583      1.00000
     22     -13.2393      1.00000
     23     -13.0749      1.00000
     24     -12.2123      1.00000
     25     -11.6523      1.00000
     26     -11.5331      1.00000
     27     -10.1549      1.00000
     28     -10.1260      1.00000
     29     -10.1004      1.00000
     30     -10.0327      1.00000
     31     -10.0123      1.00000
     32      -9.2342      1.00000
     33      -9.2308      1.00000
     34      -8.7376      1.00000
     35      -8.6560      1.00000
     36      -8.5590      1.00000
     37      -8.4672      1.00000
     38      -8.0423      1.00000
     39      -7.9151      1.00000
     40      -7.8409      1.00000
     41      -7.8116      1.00000
     42      -7.7803      1.00000
     43      -7.0084      1.00000
     44      -6.2148      1.00000
     45      -5.7213      1.00000
     46      -5.6495      1.00000
     47      -5.0687      1.00000
     48      -4.8781      1.00000
     49      -4.4902      1.00000
     50      -3.0216      0.00000
     51      -2.5601      0.00000
     52      -1.3087      0.00000
     53      -0.9939      0.00000
     54      -0.7709      0.00000
     55      -0.2286      0.00000
     56       0.2007      0.00000
     57       0.3632      0.00000
     58       0.7783      0.00000
     59       1.2264      0.00000
     60       1.3798      0.00000
     61       1.6670      0.00000

 k-point    31 :       0.0000    0.2368    0.0000
  band No.  band energies     occupation 
      1     -31.9370      1.00000
      2     -29.7652      1.00000
      3     -29.7603      1.00000
      4     -22.0017      1.00000
      5     -20.2915      1.00000
      6     -20.2421      1.00000
      7     -19.3225      1.00000
      8     -19.2439      1.00000
      9     -18.9574      1.00000
     10     -18.0497      1.00000
     11     -17.4859      1.00000
     12     -17.1647      1.00000
     13     -16.7699      1.00000
     14     -16.6287      1.00000
     15     -16.2900      1.00000
     16     -15.2520      1.00000
     17     -14.4016      1.00000
     18     -13.8640      1.00000
     19     -13.7107      1.00000
     20     -13.4619      1.00000
     21     -13.4582      1.00000
     22     -13.2092      1.00000
     23     -13.1151      1.00000
     24     -12.2148      1.00000
     25     -11.6637      1.00000
     26     -11.5592      1.00000
     27     -10.1564      1.00000
     28     -10.1254      1.00000
     29     -10.1048      1.00000
     30     -10.0217      1.00000
     31     -10.0046      1.00000
     32      -9.2342      1.00000
     33      -9.2308      1.00000
     34      -8.6976      1.00000
     35      -8.6551      1.00000
     36      -8.5406      1.00000
     37      -8.4650      1.00000
     38      -8.0489      1.00000
     39      -7.9107      1.00000
     40      -7.8595      1.00000
     41      -7.8376      1.00000
     42      -7.7885      1.00000
     43      -7.0849      1.00000
     44      -6.1751      1.00000
     45      -5.7393      1.00000
     46      -5.6747      1.00000
     47      -5.0288      1.00000
     48      -4.7721      1.00000
     49      -4.4515      1.00000
     50      -3.0664      0.00000
     51      -2.6915      0.00000
     52      -1.2632      0.00000
     53      -0.9941      0.00000
     54      -0.8050      0.00000
     55      -0.2970      0.00000
     56       0.3351      0.00000
     57       0.3569      0.00000
     58       0.7567      0.00000
     59       1.2252      0.00000
     60       1.4106      0.00000
     61       1.6943      0.00000

 k-point    32 :       0.0000    0.2105    0.0000
  band No.  band energies     occupation 
      1     -31.9370      1.00000
      2     -29.7652      1.00000
      3     -29.7603      1.00000
      4     -22.0027      1.00000
      5     -20.2783      1.00000
      6     -20.2369      1.00000
      7     -19.3275      1.00000
      8     -19.2680      1.00000
      9     -18.9928      1.00000
     10     -18.0041      1.00000
     11     -17.4171      1.00000
     12     -17.1528      1.00000
     13     -16.7700      1.00000
     14     -16.6444      1.00000
     15     -16.3693      1.00000
     16     -15.3170      1.00000
     17     -14.3154      1.00000
     18     -13.8333      1.00000
     19     -13.7107      1.00000
     20     -13.4619      1.00000
     21     -13.4582      1.00000
     22     -13.1770      1.00000
     23     -13.1593      1.00000
     24     -12.2173      1.00000
     25     -11.6747      1.00000
     26     -11.5858      1.00000
     27     -10.1582      1.00000
     28     -10.1249      1.00000
     29     -10.1090      1.00000
     30     -10.0107      1.00000
     31      -9.9968      1.00000
     32      -9.2341      1.00000
     33      -9.2308      1.00000
     34      -8.6606      1.00000
     35      -8.6492      1.00000
     36      -8.5210      1.00000
     37      -8.4614      1.00000
     38      -8.0572      1.00000
     39      -7.9095      1.00000
     40      -7.9018      1.00000
     41      -7.8377      1.00000
     42      -7.7962      1.00000
     43      -7.1582      1.00000
     44      -6.1375      1.00000
     45      -5.7552      1.00000
     46      -5.6994      1.00000
     47      -4.9911      1.00000
     48      -4.6660      1.00000
     49      -4.4079      1.00000
     50      -3.1162      0.00000
     51      -2.8194      0.00000
     52      -1.2178      0.00000
     53      -0.9943      0.00000
     54      -0.8387      0.00000
     55      -0.3605      0.00000
     56       0.3106      0.00000
     57       0.5281      0.00000
     58       0.7366      0.00000
     59       1.2136      0.00000
     60       1.4534      0.00000
     61       1.7230      0.00000

 k-point    33 :       0.0000    0.1842    0.0000
  band No.  band energies     occupation 
      1     -31.9370      1.00000
      2     -29.7651      1.00000
      3     -29.7602      1.00000
      4     -22.0037      1.00000
      5     -20.2651      1.00000
      6     -20.2319      1.00000
      7     -19.3332      1.00000
      8     -19.2902      1.00000
      9     -19.0246      1.00000
     10     -17.9601      1.00000
     11     -17.3482      1.00000
     12     -17.1382      1.00000
     13     -16.7700      1.00000
     14     -16.6633      1.00000
     15     -16.4471      1.00000
     16     -15.3774      1.00000
     17     -14.2299      1.00000
     18     -13.8078      1.00000
     19     -13.7107      1.00000
     20     -13.4619      1.00000
     21     -13.4582      1.00000
     22     -13.2075      1.00000
     23     -13.1439      1.00000
     24     -12.2197      1.00000
     25     -11.6849      1.00000
     26     -11.6123      1.00000
     27     -10.1603      1.00000
     28     -10.1245      1.00000
     29     -10.1127      1.00000
     30     -10.0003      1.00000
     31      -9.9891      1.00000
     32      -9.2341      1.00000
     33      -9.2308      1.00000
     34      -8.6559      1.00000
     35      -8.6098      1.00000
     36      -8.5015      1.00000
     37      -8.4548      1.00000
     38      -8.0678      1.00000
     39      -7.9516      1.00000
     40      -7.9021      1.00000
     41      -7.8368      1.00000
     42      -7.8036      1.00000
     43      -7.2270      1.00000
     44      -6.1028      1.00000
     45      -5.7690      1.00000
     46      -5.7229      1.00000
     47      -4.9561      1.00000
     48      -4.5604      1.00000
     49      -4.3594      1.00000
     50      -3.1708      0.00000
     51      -2.9433      0.00000
     52      -1.1739      0.00000
     53      -0.9944      0.00000
     54      -0.8711      0.00000
     55      -0.4184      0.00000
     56       0.2885      0.00000
     57       0.7071      0.00000
     58       0.7180      0.00000
     59       1.1983      0.00000
     60       1.4995      0.00000
     61       1.7414      0.00000

 k-point    34 :       0.0000    0.1579    0.0000
  band No.  band energies     occupation 
      1     -31.9370      1.00000
      2     -29.7651      1.00000
      3     -29.7602      1.00000
      4     -22.0046      1.00000
      5     -20.2525      1.00000
      6     -20.2271      1.00000
      7     -19.3396      1.00000
      8     -19.3102      1.00000
      9     -19.0522      1.00000
     10     -17.9187      1.00000
     11     -17.2799      1.00000
     12     -17.1202      1.00000
     13     -16.7700      1.00000
     14     -16.6856      1.00000
     15     -16.5229      1.00000
     16     -15.4322      1.00000
     17     -14.1456      1.00000
     18     -13.7871      1.00000
     19     -13.7107      1.00000
     20     -13.4619      1.00000
     21     -13.4581      1.00000
     22     -13.2594      1.00000
     23     -13.1112      1.00000
     24     -12.2220      1.00000
     25     -11.6941      1.00000
     26     -11.6379      1.00000
     27     -10.1626      1.00000
     28     -10.1242      1.00000
     29     -10.1158      1.00000
     30      -9.9906      1.00000
     31      -9.9819      1.00000
     32      -9.2340      1.00000
     33      -9.2308      1.00000
     34      -8.6553      1.00000
     35      -8.5669      1.00000
     36      -8.4835      1.00000
     37      -8.4425      1.00000
     38      -8.0810      1.00000
     39      -7.9972      1.00000
     40      -7.8990      1.00000
     41      -7.8356      1.00000
     42      -7.8104      1.00000
     43      -7.2902      1.00000
     44      -6.0715      1.00000
     45      -5.7808      1.00000
     46      -5.7447      1.00000
     47      -4.9245      1.00000
     48      -4.4566      1.00000
     49      -4.3063      1.00000
     50      -3.2297      0.00000
     51      -3.0625      0.00000
     52      -1.1327      0.00000
     53      -0.9945      0.00000
     54      -0.9012      0.00000
     55      -0.4697      0.00000
     56       0.2693      0.00000
     57       0.7016      0.00000
     58       0.8382      0.00000
     59       1.1832      0.00000
     60       1.5445      0.00000
     61       1.7585      0.00000

 k-point    35 :       0.0000    0.1316    0.0000
  band No.  band energies     occupation 
      1     -31.9370      1.00000
      2     -29.7651      1.00000
      3     -29.7602      1.00000
      4     -22.0054      1.00000
      5     -20.2407      1.00000
      6     -20.2228      1.00000
      7     -19.3464      1.00000
      8     -19.3276      1.00000
      9     -19.0755      1.00000
     10     -17.8810      1.00000
     11     -17.2126      1.00000
     12     -17.0982      1.00000
     13     -16.7701      1.00000
     14     -16.7118      1.00000
     15     -16.5963      1.00000
     16     -15.4807      1.00000
     17     -14.0627      1.00000
     18     -13.7707      1.00000
     19     -13.7107      1.00000
     20     -13.4619      1.00000
     21     -13.4581      1.00000
     22     -13.3146      1.00000
     23     -13.0802      1.00000
     24     -12.2240      1.00000
     25     -11.7022      1.00000
     26     -11.6618      1.00000
     27     -10.1649      1.00000
     28     -10.1241      1.00000
     29     -10.1182      1.00000
     30      -9.9819      1.00000
     31      -9.9753      1.00000
     32      -9.2340      1.00000
     33      -9.2308      1.00000
     34      -8.6551      1.00000
     35      -8.5291      1.00000
     36      -8.4650      1.00000
     37      -8.4227      1.00000
     38      -8.0976      1.00000
     39      -8.0420      1.00000
     40      -7.8964      1.00000
     41      -7.8344      1.00000
     42      -7.8164      1.00000
     43      -7.3466      1.00000
     44      -6.0443      1.00000
     45      -5.7907      1.00000
     46      -5.7641      1.00000
     47      -4.8967      1.00000
     48      -4.3556      1.00000
     49      -4.2492      1.00000
     50      -3.2921      0.00000
     51      -3.1760      0.00000
     52      -1.0953      0.00000
     53      -0.9946      0.00000
     54      -0.9283      0.00000
     55      -0.5139      0.00000
     56       0.2529      0.00000
     57       0.6875      0.00000
     58       1.0583      0.00000
     59       1.1695      0.00000
     60       1.5857      0.00000
     61       1.7813      0.00000

 k-point    36 :       0.0000    0.1053    0.0000
  band No.  band energies     occupation 
      1     -31.9370      1.00000
      2     -29.7651      1.00000
      3     -29.7603      1.00000
      4     -22.0061      1.00000
      5     -20.2302      1.00000
      6     -20.2189      1.00000
      7     -19.3532      1.00000
      8     -19.3423      1.00000
      9     -19.0942      1.00000
     10     -17.8483      1.00000
     11     -17.1470      1.00000
     12     -17.0717      1.00000
     13     -16.7703      1.00000
     14     -16.7422      1.00000
     15     -16.6668      1.00000
     16     -15.5218      1.00000
     17     -13.9819      1.00000
     18     -13.7580      1.00000
     19     -13.7107      1.00000
     20     -13.4619      1.00000
     21     -13.4581      1.00000
     22     -13.3728      1.00000
     23     -13.0524      1.00000
     24     -12.2257      1.00000
     25     -11.7091      1.00000
     26     -11.6830      1.00000
     27     -10.1671      1.00000
     28     -10.1241      1.00000
     29     -10.1199      1.00000
     30      -9.9746      1.00000
     31      -9.9696      1.00000
     32      -9.2340      1.00000
     33      -9.2308      1.00000
     34      -8.6549      1.00000
     35      -8.5050      1.00000
     36      -8.4364      1.00000
     37      -8.3973      1.00000
     38      -8.1179      1.00000
     39      -8.0856      1.00000
     40      -7.8944      1.00000
     41      -7.8332      1.00000
     42      -7.8216      1.00000
     43      -7.3949      1.00000
     44      -6.0215      1.00000
     45      -5.7986      1.00000
     46      -5.7807      1.00000
     47      -4.8731      1.00000
     48      -4.2593      1.00000
     49      -4.1895      1.00000
     50      -3.3565      0.00000
     51      -3.2822      0.00000
     52      -1.0630      0.00000
     53      -0.9945      0.00000
     54      -0.9516      0.00000
     55      -0.5507      0.00000
     56       0.2394      0.00000
     57       0.6758      0.00000
     58       1.1576      0.00000
     59       1.6190      0.00000
     60       1.7284      0.00000
     61       1.8057      0.00000

 k-point    37 :       0.0000    0.0789    0.0000
  band No.  band energies     occupation 
      1     -31.9370      1.00000
      2     -29.7651      1.00000
      3     -29.7602      1.00000
      4     -22.0066      1.00000
      5     -20.2216      1.00000
      6     -20.2157      1.00000
      7     -19.3595      1.00000
      8     -19.3539      1.00000
      9     -19.1084      1.00000
     10     -17.8215      1.00000
     11     -17.0836      1.00000
     12     -17.0400      1.00000
     13     -16.7783      1.00000
     14     -16.7697      1.00000
     15     -16.7336      1.00000
     16     -15.5548      1.00000
     17     -13.9040      1.00000
     18     -13.7486      1.00000
     19     -13.7107      1.00000
     20     -13.4619      1.00000
     21     -13.4581      1.00000
     22     -13.4330      1.00000
     23     -13.0291      1.00000
     24     -12.2271      1.00000
     25     -11.7145      1.00000
     26     -11.7007      1.00000
     27     -10.1690      1.00000
     28     -10.1243      1.00000
     29     -10.1209      1.00000
     30      -9.9687      1.00000
     31      -9.9649      1.00000
     32      -9.2340      1.00000
     33      -9.2308      1.00000
     34      -8.6547      1.00000
     35      -8.4945      1.00000
     36      -8.3969      1.00000
     37      -8.3687      1.00000
     38      -8.1422      1.00000
     39      -8.1274      1.00000
     40      -7.8930      1.00000
     41      -7.8323      1.00000
     42      -7.8256      1.00000
     43      -7.4339      1.00000
     44      -6.0034      1.00000
     45      -5.8048      1.00000
     46      -5.7941      1.00000
     47      -4.8543      1.00000
     48      -4.1706      1.00000
     49      -4.1294      1.00000
     50      -3.4201      0.00000
     51      -3.3786      0.00000
     52      -1.0369      0.00000
     53      -0.9944      0.00000
     54      -0.9703      0.00000
     55      -0.5796      0.00000
     56       0.2289      0.00000
     57       0.6667      0.00000
     58       1.1483      0.00000
     59       1.6499      0.00000
     60       1.8062      0.00000
     61       1.9080      0.00000

 k-point    38 :       0.0000    0.0526    0.0000
  band No.  band energies     occupation 
      1     -31.9371      1.00000
      2     -29.7651      1.00000
      3     -29.7603      1.00000
      4     -22.0071      1.00000
      5     -20.2152      1.00000
      6     -20.2132      1.00000
      7     -19.3648      1.00000
      8     -19.3621      1.00000
      9     -19.1184      1.00000
     10     -17.8016      1.00000
     11     -17.0229      1.00000
     12     -17.0027      1.00000
     13     -16.8175      1.00000
     14     -16.7984      1.00000
     15     -16.7689      1.00000
     16     -15.5789      1.00000
     17     -13.8309      1.00000
     18     -13.7421      1.00000
     19     -13.7107      1.00000
     20     -13.4938      1.00000
     21     -13.4618      1.00000
     22     -13.4579      1.00000
     23     -13.0115      1.00000
     24     -12.2281      1.00000
     25     -11.7185      1.00000
     26     -11.7140      1.00000
     27     -10.1705      1.00000
     28     -10.1247      1.00000
     29     -10.1215      1.00000
     30      -9.9645      1.00000
     31      -9.9614      1.00000
     32      -9.2340      1.00000
     33      -9.2308      1.00000
     34      -8.6547      1.00000
     35      -8.4900      1.00000
     36      -8.3548      1.00000
     37      -8.3388      1.00000
     38      -8.1701      1.00000
     39      -8.1665      1.00000
     40      -7.8920      1.00000
     41      -7.8321      1.00000
     42      -7.8279      1.00000
     43      -7.4625      1.00000
     44      -5.9904      1.00000
     45      -5.8091      1.00000
     46      -5.8040      1.00000
     47      -4.8406      1.00000
     48      -4.0946      1.00000
     49      -4.0738      1.00000
     50      -3.4783      0.00000
     51      -3.4602      0.00000
     52      -1.0182      0.00000
     53      -0.9940      0.00000
     54      -0.9838      0.00000
     55      -0.6004      0.00000
     56       0.2214      0.00000
     57       0.6601      0.00000
     58       1.1415      0.00000
     59       1.6699      0.00000
     60       1.8182      0.00000
     61       1.8334      0.00000

 k-point    39 :       0.0000    0.0263    0.0000
  band No.  band energies     occupation 
      1     -31.9371      1.00000
      2     -29.7651      1.00000
      3     -29.7603      1.00000
      4     -22.0073      1.00000
      5     -20.2123      1.00000
      6     -20.2106      1.00000
      7     -19.3687      1.00000
      8     -19.3666      1.00000
      9     -19.1242      1.00000
     10     -17.7893      1.00000
     11     -16.9658      1.00000
     12     -16.9598      1.00000
     13     -16.8621      1.00000
     14     -16.8565      1.00000
     15     -16.7695      1.00000
     16     -15.5937      1.00000
     17     -13.7686      1.00000
     18     -13.7383      1.00000
     19     -13.7106      1.00000
     20     -13.5485      1.00000
     21     -13.4618      1.00000
     22     -13.4580      1.00000
     23     -13.0005      1.00000
     24     -12.2287      1.00000
     25     -11.7227      1.00000
     26     -11.7205      1.00000
     27     -10.1714      1.00000
     28     -10.1249      1.00000
     29     -10.1217      1.00000
     30      -9.9619      1.00000
     31      -9.9592      1.00000
     32      -9.2340      1.00000
     33      -9.2308      1.00000
     34      -8.6546      1.00000
     35      -8.4881      1.00000
     36      -8.3171      1.00000
     37      -8.3110      1.00000
     38      -8.2002      1.00000
     39      -8.1978      1.00000
     40      -7.8915      1.00000
     41      -7.8328      1.00000
     42      -7.8285      1.00000
     43      -7.4800      1.00000
     44      -5.9825      1.00000
     45      -5.8117      1.00000
     46      -5.8099      1.00000
     47      -4.8323      1.00000
     48      -4.0402      1.00000
     49      -4.0312      1.00000
     50      -3.5226      0.00000
     51      -3.5178      0.00000
     52      -1.0077      0.00000
     53      -0.9950      0.00000
     54      -0.9898      0.00000
     55      -0.6129      0.00000
     56       0.2169      0.00000
     57       0.6561      0.00000
     58       1.1374      0.00000
     59       1.6826      0.00000
     60       1.8303      0.00000
     61       1.8877      0.00000

 k-point    40 :       0.0000    0.0000    0.0000
  band No.  band energies     occupation 
      1     -31.9371      1.00000
      2     -29.7651      1.00000
      3     -29.7603      1.00000
      4     -22.0074      1.00000
      5     -20.2117      1.00000
      6     -20.2093      1.00000
      7     -19.3702      1.00000
      8     -19.3680      1.00000
      9     -19.1262      1.00000
     10     -17.7852      1.00000
     11     -16.9188      1.00000
     12     -16.9160      1.00000
     13     -16.9066      1.00000
     14     -16.9038      1.00000
     15     -16.7695      1.00000
     16     -15.5986      1.00000
     17     -13.7392      1.00000
     18     -13.7366      1.00000
     19     -13.7106      1.00000
     20     -13.5758      1.00000
     21     -13.4618      1.00000
     22     -13.4580      1.00000
     23     -12.9968      1.00000
     24     -12.2289      1.00000
     25     -11.7255      1.00000
     26     -11.7214      1.00000
     27     -10.1717      1.00000
     28     -10.1250      1.00000
     29     -10.1217      1.00000
     30      -9.9611      1.00000
     31      -9.9585      1.00000
     32      -9.2340      1.00000
     33      -9.2308      1.00000
     34      -8.6546      1.00000
     35      -8.4875      1.00000
     36      -8.2984      1.00000
     37      -8.2968      1.00000
     38      -8.2164      1.00000
     39      -8.2129      1.00000
     40      -7.8914      1.00000
     41      -7.8332      1.00000
     42      -7.8286      1.00000
     43      -7.4859      1.00000
     44      -5.9799      1.00000
     45      -5.8126      1.00000
     46      -5.8119      1.00000
     47      -4.8295      1.00000
     48      -4.0198      1.00000
     49      -4.0144      1.00000
     50      -3.5413      0.00000
     51      -3.5378      0.00000
     52      -1.0047      0.00000
     53      -0.9969      0.00000
     54      -0.9896      0.00000
     55      -0.6171      0.00000
     56       0.2154      0.00000
     57       0.6548      0.00000
     58       1.1360      0.00000
     59       1.6874      0.00000
     60       1.8311      0.00000
     61       1.8679      0.00000

 k-point    41 :       0.0000    0.0000    0.0000
  band No.  band energies     occupation 
      1     -31.9371      1.00000
      2     -29.7651      1.00000
      3     -29.7603      1.00000
      4     -22.0074      1.00000
      5     -20.2117      1.00000
      6     -20.2093      1.00000
      7     -19.3702      1.00000
      8     -19.3680      1.00000
      9     -19.1262      1.00000
     10     -17.7852      1.00000
     11     -16.9188      1.00000
     12     -16.9160      1.00000
     13     -16.9066      1.00000
     14     -16.9038      1.00000
     15     -16.7695      1.00000
     16     -15.5986      1.00000
     17     -13.7392      1.00000
     18     -13.7366      1.00000
     19     -13.7106      1.00000
     20     -13.5758      1.00000
     21     -13.4618      1.00000
     22     -13.4580      1.00000
     23     -12.9968      1.00000
     24     -12.2289      1.00000
     25     -11.7255      1.00000
     26     -11.7214      1.00000
     27     -10.1717      1.00000
     28     -10.1250      1.00000
     29     -10.1217      1.00000
     30      -9.9611      1.00000
     31      -9.9585      1.00000
     32      -9.2340      1.00000
     33      -9.2308      1.00000
     34      -8.6546      1.00000
     35      -8.4875      1.00000
     36      -8.2984      1.00000
     37      -8.2968      1.00000
     38      -8.2164      1.00000
     39      -8.2129      1.00000
     40      -7.8914      1.00000
     41      -7.8332      1.00000
     42      -7.8286      1.00000
     43      -7.4859      1.00000
     44      -5.9799      1.00000
     45      -5.8126      1.00000
     46      -5.8119      1.00000
     47      -4.8295      1.00000
     48      -4.0198      1.00000
     49      -4.0144      1.00000
     50      -3.5413      0.00000
     51      -3.5378      0.00000
     52      -1.0047      0.00000
     53      -0.9969      0.00000
     54      -0.9896      0.00000
     55      -0.6171      0.00000
     56       0.2154      0.00000
     57       0.6548      0.00000
     58       1.1360      0.00000
     59       1.6877      0.00000
     60       1.8266      0.00000
     61       1.9050      0.00000

 k-point    42 :       0.0000    0.0000    0.0263
  band No.  band energies     occupation 
      1     -31.9371      1.00000
      2     -29.7651      1.00000
      3     -29.7603      1.00000
      4     -22.0074      1.00000
      5     -20.2117      1.00000
      6     -20.2093      1.00000
      7     -19.3702      1.00000
      8     -19.3680      1.00000
      9     -19.1262      1.00000
     10     -17.7852      1.00000
     11     -16.9188      1.00000
     12     -16.9160      1.00000
     13     -16.9066      1.00000
     14     -16.9038      1.00000
     15     -16.7695      1.00000
     16     -15.5986      1.00000
     17     -13.7392      1.00000
     18     -13.7366      1.00000
     19     -13.7106      1.00000
     20     -13.5758      1.00000
     21     -13.4618      1.00000
     22     -13.4580      1.00000
     23     -12.9968      1.00000
     24     -12.2289      1.00000
     25     -11.7255      1.00000
     26     -11.7214      1.00000
     27     -10.1717      1.00000
     28     -10.1250      1.00000
     29     -10.1217      1.00000
     30      -9.9611      1.00000
     31      -9.9585      1.00000
     32      -9.2340      1.00000
     33      -9.2307      1.00000
     34      -8.6546      1.00000
     35      -8.4875      1.00000
     36      -8.2984      1.00000
     37      -8.2968      1.00000
     38      -8.2164      1.00000
     39      -8.2129      1.00000
     40      -7.8914      1.00000
     41      -7.8332      1.00000
     42      -7.8286      1.00000
     43      -7.4859      1.00000
     44      -5.9799      1.00000
     45      -5.8126      1.00000
     46      -5.8119      1.00000
     47      -4.8295      1.00000
     48      -4.0198      1.00000
     49      -4.0144      1.00000
     50      -3.5413      0.00000
     51      -3.5378      0.00000
     52      -1.0047      0.00000
     53      -0.9969      0.00000
     54      -0.9896      0.00000
     55      -0.6171      0.00000
     56       0.2155      0.00000
     57       0.6545      0.00000
     58       1.1369      0.00000
     59       1.6857      0.00000
     60       1.8314      0.00000
     61       1.8838      0.00000

 k-point    43 :       0.0000    0.0000    0.0526
  band No.  band energies     occupation 
      1     -31.9371      1.00000
      2     -29.7651      1.00000
      3     -29.7603      1.00000
      4     -22.0074      1.00000
      5     -20.2117      1.00000
      6     -20.2093      1.00000
      7     -19.3702      1.00000
      8     -19.3680      1.00000
      9     -19.1262      1.00000
     10     -17.7852      1.00000
     11     -16.9188      1.00000
     12     -16.9160      1.00000
     13     -16.9066      1.00000
     14     -16.9038      1.00000
     15     -16.7695      1.00000
     16     -15.5986      1.00000
     17     -13.7392      1.00000
     18     -13.7366      1.00000
     19     -13.7106      1.00000
     20     -13.5758      1.00000
     21     -13.4618      1.00000
     22     -13.4580      1.00000
     23     -12.9968      1.00000
     24     -12.2289      1.00000
     25     -11.7255      1.00000
     26     -11.7214      1.00000
     27     -10.1717      1.00000
     28     -10.1250      1.00000
     29     -10.1217      1.00000
     30      -9.9611      1.00000
     31      -9.9585      1.00000
     32      -9.2340      1.00000
     33      -9.2308      1.00000
     34      -8.6546      1.00000
     35      -8.4875      1.00000
     36      -8.2984      1.00000
     37      -8.2968      1.00000
     38      -8.2164      1.00000
     39      -8.2129      1.00000
     40      -7.8914      1.00000
     41      -7.8332      1.00000
     42      -7.8286      1.00000
     43      -7.4859      1.00000
     44      -5.9799      1.00000
     45      -5.8126      1.00000
     46      -5.8119      1.00000
     47      -4.8295      1.00000
     48      -4.0198      1.00000
     49      -4.0144      1.00000
     50      -3.5413      0.00000
     51      -3.5378      0.00000
     52      -1.0047      0.00000
     53      -0.9969      0.00000
     54      -0.9896      0.00000
     55      -0.6171      0.00000
     56       0.2156      0.00000
     57       0.6536      0.00000
     58       1.1395      0.00000
     59       1.6809      0.00000
     60       1.8262      0.00000
     61       1.9000      0.00000

 k-point    44 :       0.0000    0.0000    0.0789
  band No.  band energies     occupation 
      1     -31.9371      1.00000
      2     -29.7651      1.00000
      3     -29.7603      1.00000
      4     -22.0074      1.00000
      5     -20.2117      1.00000
      6     -20.2093      1.00000
      7     -19.3702      1.00000
      8     -19.3680      1.00000
      9     -19.1262      1.00000
     10     -17.7852      1.00000
     11     -16.9188      1.00000
     12     -16.9160      1.00000
     13     -16.9066      1.00000
     14     -16.9038      1.00000
     15     -16.7695      1.00000
     16     -15.5986      1.00000
     17     -13.7392      1.00000
     18     -13.7366      1.00000
     19     -13.7106      1.00000
     20     -13.5758      1.00000
     21     -13.4618      1.00000
     22     -13.4580      1.00000
     23     -12.9968      1.00000
     24     -12.2289      1.00000
     25     -11.7255      1.00000
     26     -11.7214      1.00000
     27     -10.1717      1.00000
     28     -10.1250      1.00000
     29     -10.1217      1.00000
     30      -9.9611      1.00000
     31      -9.9585      1.00000
     32      -9.2340      1.00000
     33      -9.2308      1.00000
     34      -8.6546      1.00000
     35      -8.4875      1.00000
     36      -8.2984      1.00000
     37      -8.2968      1.00000
     38      -8.2164      1.00000
     39      -8.2129      1.00000
     40      -7.8914      1.00000
     41      -7.8332      1.00000
     42      -7.8286      1.00000
     43      -7.4859      1.00000
     44      -5.9799      1.00000
     45      -5.8126      1.00000
     46      -5.8119      1.00000
     47      -4.8295      1.00000
     48      -4.0198      1.00000
     49      -4.0144      1.00000
     50      -3.5413      0.00000
     51      -3.5378      0.00000
     52      -1.0047      0.00000
     53      -0.9969      0.00000
     54      -0.9896      0.00000
     55      -0.6171      0.00000
     56       0.2158      0.00000
     57       0.6522      0.00000
     58       1.1439      0.00000
     59       1.6757      0.00000
     60       1.8240      0.00000
     61       1.8668      0.00000

 k-point    45 :       0.0000    0.0000    0.1053
  band No.  band energies     occupation 
      1     -31.9370      1.00000
      2     -29.7651      1.00000
      3     -29.7602      1.00000
      4     -22.0074      1.00000
      5     -20.2117      1.00000
      6     -20.2093      1.00000
      7     -19.3702      1.00000
      8     -19.3680      1.00000
      9     -19.1262      1.00000
     10     -17.7852      1.00000
     11     -16.9188      1.00000
     12     -16.9160      1.00000
     13     -16.9066      1.00000
     14     -16.9038      1.00000
     15     -16.7695      1.00000
     16     -15.5986      1.00000
     17     -13.7392      1.00000
     18     -13.7366      1.00000
     19     -13.7106      1.00000
     20     -13.5758      1.00000
     21     -13.4618      1.00000
     22     -13.4580      1.00000
     23     -12.9968      1.00000
     24     -12.2289      1.00000
     25     -11.7255      1.00000
     26     -11.7214      1.00000
     27     -10.1717      1.00000
     28     -10.1250      1.00000
     29     -10.1217      1.00000
     30      -9.9611      1.00000
     31      -9.9585      1.00000
     32      -9.2340      1.00000
     33      -9.2308      1.00000
     34      -8.6546      1.00000
     35      -8.4875      1.00000
     36      -8.2984      1.00000
     37      -8.2968      1.00000
     38      -8.2164      1.00000
     39      -8.2129      1.00000
     40      -7.8914      1.00000
     41      -7.8332      1.00000
     42      -7.8286      1.00000
     43      -7.4859      1.00000
     44      -5.9799      1.00000
     45      -5.8126      1.00000
     46      -5.8119      1.00000
     47      -4.8295      1.00000
     48      -4.0198      1.00000
     49      -4.0144      1.00000
     50      -3.5413      0.00000
     51      -3.5378      0.00000
     52      -1.0047      0.00000
     53      -0.9969      0.00000
     54      -0.9896      0.00000
     55      -0.6171      0.00000
     56       0.2160      0.00000
     57       0.6503      0.00000
     58       1.1498      0.00000
     59       1.6665      0.00000
     60       1.8307      0.00000
     61       1.8405      0.00000

 k-point    46 :       0.0000    0.0000    0.1316
  band No.  band energies     occupation 
      1     -31.9370      1.00000
      2     -29.7651      1.00000
      3     -29.7602      1.00000
      4     -22.0074      1.00000
      5     -20.2117      1.00000
      6     -20.2093      1.00000
      7     -19.3702      1.00000
      8     -19.3680      1.00000
      9     -19.1262      1.00000
     10     -17.7852      1.00000
     11     -16.9188      1.00000
     12     -16.9160      1.00000
     13     -16.9066      1.00000
     14     -16.9038      1.00000
     15     -16.7695      1.00000
     16     -15.5986      1.00000
     17     -13.7392      1.00000
     18     -13.7366      1.00000
     19     -13.7106      1.00000
     20     -13.5758      1.00000
     21     -13.4618      1.00000
     22     -13.4580      1.00000
     23     -12.9968      1.00000
     24     -12.2289      1.00000
     25     -11.7255      1.00000
     26     -11.7214      1.00000
     27     -10.1717      1.00000
     28     -10.1250      1.00000
     29     -10.1217      1.00000
     30      -9.9611      1.00000
     31      -9.9585      1.00000
     32      -9.2340      1.00000
     33      -9.2308      1.00000
     34      -8.6546      1.00000
     35      -8.4875      1.00000
     36      -8.2984      1.00000
     37      -8.2968      1.00000
     38      -8.2164      1.00000
     39      -8.2129      1.00000
     40      -7.8914      1.00000
     41      -7.8332      1.00000
     42      -7.8286      1.00000
     43      -7.4859      1.00000
     44      -5.9799      1.00000
     45      -5.8126      1.00000
     46      -5.8119      1.00000
     47      -4.8295      1.00000
     48      -4.0198      1.00000
     49      -4.0144      1.00000
     50      -3.5413      0.00000
     51      -3.5378      0.00000
     52      -1.0047      0.00000
     53      -0.9969      0.00000
     54      -0.9896      0.00000
     55      -0.6171      0.00000
     56       0.2164      0.00000
     57       0.6480      0.00000
     58       1.1574      0.00000
     59       1.6556      0.00000
     60       1.8269      0.00000
     61       1.8585      0.00000

 k-point    47 :       0.0000    0.0000    0.1579
  band No.  band energies     occupation 
      1     -31.9370      1.00000
      2     -29.7651      1.00000
      3     -29.7602      1.00000
      4     -22.0074      1.00000
      5     -20.2117      1.00000
      6     -20.2093      1.00000
      7     -19.3702      1.00000
      8     -19.3680      1.00000
      9     -19.1262      1.00000
     10     -17.7852      1.00000
     11     -16.9188      1.00000
     12     -16.9160      1.00000
     13     -16.9066      1.00000
     14     -16.9038      1.00000
     15     -16.7695      1.00000
     16     -15.5986      1.00000
     17     -13.7392      1.00000
     18     -13.7366      1.00000
     19     -13.7106      1.00000
     20     -13.5758      1.00000
     21     -13.4618      1.00000
     22     -13.4580      1.00000
     23     -12.9968      1.00000
     24     -12.2289      1.00000
     25     -11.7255      1.00000
     26     -11.7214      1.00000
     27     -10.1717      1.00000
     28     -10.1250      1.00000
     29     -10.1217      1.00000
     30      -9.9611      1.00000
     31      -9.9585      1.00000
     32      -9.2340      1.00000
     33      -9.2308      1.00000
     34      -8.6546      1.00000
     35      -8.4875      1.00000
     36      -8.2984      1.00000
     37      -8.2968      1.00000
     38      -8.2164      1.00000
     39      -8.2129      1.00000
     40      -7.8914      1.00000
     41      -7.8332      1.00000
     42      -7.8286      1.00000
     43      -7.4859      1.00000
     44      -5.9799      1.00000
     45      -5.8126      1.00000
     46      -5.8119      1.00000
     47      -4.8295      1.00000
     48      -4.0198      1.00000
     49      -4.0144      1.00000
     50      -3.5413      0.00000
     51      -3.5378      0.00000
     52      -1.0047      0.00000
     53      -0.9969      0.00000
     54      -0.9896      0.00000
     55      -0.6171      0.00000
     56       0.2168      0.00000
     57       0.6453      0.00000
     58       1.1665      0.00000
     59       1.6424      0.00000
     60       1.8344      0.00000
     61       1.8391      0.00000

 k-point    48 :       0.0000    0.0000    0.1842
  band No.  band energies     occupation 
      1     -31.9370      1.00000
      2     -29.7651      1.00000
      3     -29.7602      1.00000
      4     -22.0074      1.00000
      5     -20.2117      1.00000
      6     -20.2093      1.00000
      7     -19.3702      1.00000
      8     -19.3680      1.00000
      9     -19.1262      1.00000
     10     -17.7852      1.00000
     11     -16.9188      1.00000
     12     -16.9160      1.00000
     13     -16.9066      1.00000
     14     -16.9038      1.00000
     15     -16.7695      1.00000
     16     -15.5986      1.00000
     17     -13.7392      1.00000
     18     -13.7366      1.00000
     19     -13.7106      1.00000
     20     -13.5758      1.00000
     21     -13.4618      1.00000
     22     -13.4580      1.00000
     23     -12.9968      1.00000
     24     -12.2289      1.00000
     25     -11.7255      1.00000
     26     -11.7214      1.00000
     27     -10.1717      1.00000
     28     -10.1250      1.00000
     29     -10.1217      1.00000
     30      -9.9611      1.00000
     31      -9.9585      1.00000
     32      -9.2340      1.00000
     33      -9.2307      1.00000
     34      -8.6546      1.00000
     35      -8.4875      1.00000
     36      -8.2984      1.00000
     37      -8.2968      1.00000
     38      -8.2164      1.00000
     39      -8.2129      1.00000
     40      -7.8914      1.00000
     41      -7.8332      1.00000
     42      -7.8286      1.00000
     43      -7.4859      1.00000
     44      -5.9799      1.00000
     45      -5.8126      1.00000
     46      -5.8119      1.00000
     47      -4.8295      1.00000
     48      -4.0198      1.00000
     49      -4.0144      1.00000
     50      -3.5413      0.00000
     51      -3.5378      0.00000
     52      -1.0047      0.00000
     53      -0.9969      0.00000
     54      -0.9896      0.00000
     55      -0.6171      0.00000
     56       0.2172      0.00000
     57       0.6424      0.00000
     58       1.1770      0.00000
     59       1.6282      0.00000
     60       1.8226      0.00000
     61       1.8892      0.00000

 k-point    49 :       0.0000    0.0000    0.2105
  band No.  band energies     occupation 
      1     -31.9370      1.00000
      2     -29.7651      1.00000
      3     -29.7602      1.00000
      4     -22.0074      1.00000
      5     -20.2117      1.00000
      6     -20.2093      1.00000
      7     -19.3702      1.00000
      8     -19.3680      1.00000
      9     -19.1262      1.00000
     10     -17.7852      1.00000
     11     -16.9188      1.00000
     12     -16.9160      1.00000
     13     -16.9066      1.00000
     14     -16.9038      1.00000
     15     -16.7695      1.00000
     16     -15.5986      1.00000
     17     -13.7392      1.00000
     18     -13.7366      1.00000
     19     -13.7106      1.00000
     20     -13.5758      1.00000
     21     -13.4618      1.00000
     22     -13.4580      1.00000
     23     -12.9968      1.00000
     24     -12.2289      1.00000
     25     -11.7255      1.00000
     26     -11.7214      1.00000
     27     -10.1717      1.00000
     28     -10.1250      1.00000
     29     -10.1217      1.00000
     30      -9.9611      1.00000
     31      -9.9585      1.00000
     32      -9.2340      1.00000
     33      -9.2307      1.00000
     34      -8.6546      1.00000
     35      -8.4875      1.00000
     36      -8.2984      1.00000
     37      -8.2968      1.00000
     38      -8.2164      1.00000
     39      -8.2129      1.00000
     40      -7.8914      1.00000
     41      -7.8332      1.00000
     42      -7.8286      1.00000
     43      -7.4859      1.00000
     44      -5.9799      1.00000
     45      -5.8126      1.00000
     46      -5.8119      1.00000
     47      -4.8295      1.00000
     48      -4.0198      1.00000
     49      -4.0144      1.00000
     50      -3.5413      0.00000
     51      -3.5378      0.00000
     52      -1.0047      0.00000
     53      -0.9969      0.00000
     54      -0.9896      0.00000
     55      -0.6171      0.00000
     56       0.2177      0.00000
     57       0.6393      0.00000
     58       1.1887      0.00000
     59       1.6128      0.00000
     60       1.8213      0.00000
     61       1.9593      0.00000

 k-point    50 :       0.0000    0.0000    0.2368
  band No.  band energies     occupation 
      1     -31.9370      1.00000
      2     -29.7651      1.00000
      3     -29.7602      1.00000
      4     -22.0074      1.00000
      5     -20.2117      1.00000
      6     -20.2093      1.00000
      7     -19.3702      1.00000
      8     -19.3680      1.00000
      9     -19.1262      1.00000
     10     -17.7852      1.00000
     11     -16.9188      1.00000
     12     -16.9160      1.00000
     13     -16.9066      1.00000
     14     -16.9038      1.00000
     15     -16.7695      1.00000
     16     -15.5986      1.00000
     17     -13.7392      1.00000
     18     -13.7366      1.00000
     19     -13.7106      1.00000
     20     -13.5758      1.00000
     21     -13.4618      1.00000
     22     -13.4580      1.00000
     23     -12.9968      1.00000
     24     -12.2289      1.00000
     25     -11.7255      1.00000
     26     -11.7214      1.00000
     27     -10.1717      1.00000
     28     -10.1250      1.00000
     29     -10.1217      1.00000
     30      -9.9611      1.00000
     31      -9.9585      1.00000
     32      -9.2340      1.00000
     33      -9.2307      1.00000
     34      -8.6546      1.00000
     35      -8.4875      1.00000
     36      -8.2984      1.00000
     37      -8.2968      1.00000
     38      -8.2164      1.00000
     39      -8.2129      1.00000
     40      -7.8914      1.00000
     41      -7.8332      1.00000
     42      -7.8286      1.00000
     43      -7.4859      1.00000
     44      -5.9799      1.00000
     45      -5.8126      1.00000
     46      -5.8119      1.00000
     47      -4.8295      1.00000
     48      -4.0198      1.00000
     49      -4.0144      1.00000
     50      -3.5413      0.00000
     51      -3.5378      0.00000
     52      -1.0047      0.00000
     53      -0.9969      0.00000
     54      -0.9896      0.00000
     55      -0.6171      0.00000
     56       0.2182      0.00000
     57       0.6361      0.00000
     58       1.2017      0.00000
     59       1.5948      0.00000
     60       1.8200      0.00000
     61       1.8941      0.00000

 k-point    51 :       0.0000    0.0000    0.2632
  band No.  band energies     occupation 
      1     -31.9370      1.00000
      2     -29.7651      1.00000
      3     -29.7602      1.00000
      4     -22.0074      1.00000
      5     -20.2117      1.00000
      6     -20.2093      1.00000
      7     -19.3702      1.00000
      8     -19.3680      1.00000
      9     -19.1262      1.00000
     10     -17.7852      1.00000
     11     -16.9188      1.00000
     12     -16.9160      1.00000
     13     -16.9066      1.00000
     14     -16.9038      1.00000
     15     -16.7695      1.00000
     16     -15.5986      1.00000
     17     -13.7392      1.00000
     18     -13.7366      1.00000
     19     -13.7106      1.00000
     20     -13.5758      1.00000
     21     -13.4618      1.00000
     22     -13.4580      1.00000
     23     -12.9968      1.00000
     24     -12.2289      1.00000
     25     -11.7255      1.00000
     26     -11.7214      1.00000
     27     -10.1717      1.00000
     28     -10.1250      1.00000
     29     -10.1217      1.00000
     30      -9.9611      1.00000
     31      -9.9585      1.00000
     32      -9.2340      1.00000
     33      -9.2307      1.00000
     34      -8.6546      1.00000
     35      -8.4875      1.00000
     36      -8.2984      1.00000
     37      -8.2968      1.00000
     38      -8.2164      1.00000
     39      -8.2129      1.00000
     40      -7.8914      1.00000
     41      -7.8332      1.00000
     42      -7.8286      1.00000
     43      -7.4859      1.00000
     44      -5.9799      1.00000
     45      -5.8126      1.00000
     46      -5.8119      1.00000
     47      -4.8295      1.00000
     48      -4.0198      1.00000
     49      -4.0144      1.00000
     50      -3.5413      0.00000
     51      -3.5378      0.00000
     52      -1.0047      0.00000
     53      -0.9969      0.00000
     54      -0.9896      0.00000
     55      -0.6171      0.00000
     56       0.2187      0.00000
     57       0.6330      0.00000
     58       1.2158      0.00000
     59       1.5764      0.00000
     60       1.8212      0.00000
     61       1.8437      0.00000

 k-point    52 :       0.0000    0.0000    0.2895
  band No.  band energies     occupation 
      1     -31.9370      1.00000
      2     -29.7651      1.00000
      3     -29.7602      1.00000
      4     -22.0074      1.00000
      5     -20.2117      1.00000
      6     -20.2093      1.00000
      7     -19.3702      1.00000
      8     -19.3680      1.00000
      9     -19.1262      1.00000
     10     -17.7852      1.00000
     11     -16.9188      1.00000
     12     -16.9160      1.00000
     13     -16.9066      1.00000
     14     -16.9038      1.00000
     15     -16.7695      1.00000
     16     -15.5986      1.00000
     17     -13.7392      1.00000
     18     -13.7366      1.00000
     19     -13.7106      1.00000
     20     -13.5758      1.00000
     21     -13.4618      1.00000
     22     -13.4580      1.00000
     23     -12.9968      1.00000
     24     -12.2289      1.00000
     25     -11.7255      1.00000
     26     -11.7214      1.00000
     27     -10.1717      1.00000
     28     -10.1250      1.00000
     29     -10.1217      1.00000
     30      -9.9611      1.00000
     31      -9.9585      1.00000
     32      -9.2340      1.00000
     33      -9.2307      1.00000
     34      -8.6546      1.00000
     35      -8.4875      1.00000
     36      -8.2984      1.00000
     37      -8.2968      1.00000
     38      -8.2164      1.00000
     39      -8.2129      1.00000
     40      -7.8914      1.00000
     41      -7.8332      1.00000
     42      -7.8286      1.00000
     43      -7.4859      1.00000
     44      -5.9799      1.00000
     45      -5.8126      1.00000
     46      -5.8119      1.00000
     47      -4.8295      1.00000
     48      -4.0198      1.00000
     49      -4.0144      1.00000
     50      -3.5413      0.00000
     51      -3.5378      0.00000
     52      -1.0047      0.00000
     53      -0.9969      0.00000
     54      -0.9896      0.00000
     55      -0.6171      0.00000
     56       0.2192      0.00000
     57       0.6299      0.00000
     58       1.2308      0.00000
     59       1.5571      0.00000
     60       1.8199      0.00000
     61       1.8503      0.00000

 k-point    53 :       0.0000    0.0000    0.3158
  band No.  band energies     occupation 
      1     -31.9370      1.00000
      2     -29.7651      1.00000
      3     -29.7602      1.00000
      4     -22.0074      1.00000
      5     -20.2117      1.00000
      6     -20.2093      1.00000
      7     -19.3702      1.00000
      8     -19.3680      1.00000
      9     -19.1262      1.00000
     10     -17.7852      1.00000
     11     -16.9188      1.00000
     12     -16.9160      1.00000
     13     -16.9066      1.00000
     14     -16.9038      1.00000
     15     -16.7695      1.00000
     16     -15.5986      1.00000
     17     -13.7392      1.00000
     18     -13.7366      1.00000
     19     -13.7106      1.00000
     20     -13.5758      1.00000
     21     -13.4618      1.00000
     22     -13.4580      1.00000
     23     -12.9968      1.00000
     24     -12.2289      1.00000
     25     -11.7255      1.00000
     26     -11.7214      1.00000
     27     -10.1717      1.00000
     28     -10.1250      1.00000
     29     -10.1217      1.00000
     30      -9.9611      1.00000
     31      -9.9585      1.00000
     32      -9.2340      1.00000
     33      -9.2307      1.00000
     34      -8.6546      1.00000
     35      -8.4875      1.00000
     36      -8.2984      1.00000
     37      -8.2968      1.00000
     38      -8.2164      1.00000
     39      -8.2129      1.00000
     40      -7.8914      1.00000
     41      -7.8332      1.00000
     42      -7.8286      1.00000
     43      -7.4859      1.00000
     44      -5.9799      1.00000
     45      -5.8126      1.00000
     46      -5.8119      1.00000
     47      -4.8295      1.00000
     48      -4.0198      1.00000
     49      -4.0144      1.00000
     50      -3.5413      0.00000
     51      -3.5378      0.00000
     52      -1.0047      0.00000
     53      -0.9969      0.00000
     54      -0.9896      0.00000
     55      -0.6171      0.00000
     56       0.2196      0.00000
     57       0.6270      0.00000
     58       1.2467      0.00000
     59       1.5376      0.00000
     60       1.8321      0.00000
     61       1.8695      0.00000

 k-point    54 :       0.0000    0.0000    0.3421
  band No.  band energies     occupation 
      1     -31.9370      1.00000
      2     -29.7651      1.00000
      3     -29.7602      1.00000
      4     -22.0074      1.00000
      5     -20.2117      1.00000
      6     -20.2093      1.00000
      7     -19.3702      1.00000
      8     -19.3680      1.00000
      9     -19.1262      1.00000
     10     -17.7852      1.00000
     11     -16.9188      1.00000
     12     -16.9160      1.00000
     13     -16.9066      1.00000
     14     -16.9038      1.00000
     15     -16.7695      1.00000
     16     -15.5986      1.00000
     17     -13.7392      1.00000
     18     -13.7366      1.00000
     19     -13.7106      1.00000
     20     -13.5758      1.00000
     21     -13.4618      1.00000
     22     -13.4580      1.00000
     23     -12.9968      1.00000
     24     -12.2289      1.00000
     25     -11.7255      1.00000
     26     -11.7214      1.00000
     27     -10.1717      1.00000
     28     -10.1250      1.00000
     29     -10.1217      1.00000
     30      -9.9611      1.00000
     31      -9.9585      1.00000
     32      -9.2340      1.00000
     33      -9.2307      1.00000
     34      -8.6546      1.00000
     35      -8.4875      1.00000
     36      -8.2984      1.00000
     37      -8.2968      1.00000
     38      -8.2164      1.00000
     39      -8.2129      1.00000
     40      -7.8914      1.00000
     41      -7.8332      1.00000
     42      -7.8286      1.00000
     43      -7.4859      1.00000
     44      -5.9799      1.00000
     45      -5.8126      1.00000
     46      -5.8119      1.00000
     47      -4.8295      1.00000
     48      -4.0198      1.00000
     49      -4.0144      1.00000
     50      -3.5413      0.00000
     51      -3.5378      0.00000
     52      -1.0047      0.00000
     53      -0.9969      0.00000
     54      -0.9896      0.00000
     55      -0.6171      0.00000
     56       0.2201      0.00000
     57       0.6244      0.00000
     58       1.2633      0.00000
     59       1.5176      0.00000
     60       1.8220      0.00000
     61       1.8592      0.00000

 k-point    55 :       0.0000    0.0000    0.3684
  band No.  band energies     occupation 
      1     -31.9370      1.00000
      2     -29.7651      1.00000
      3     -29.7602      1.00000
      4     -22.0074      1.00000
      5     -20.2117      1.00000
      6     -20.2093      1.00000
      7     -19.3702      1.00000
      8     -19.3680      1.00000
      9     -19.1262      1.00000
     10     -17.7852      1.00000
     11     -16.9188      1.00000
     12     -16.9160      1.00000
     13     -16.9066      1.00000
     14     -16.9038      1.00000
     15     -16.7695      1.00000
     16     -15.5986      1.00000
     17     -13.7392      1.00000
     18     -13.7366      1.00000
     19     -13.7106      1.00000
     20     -13.5758      1.00000
     21     -13.4618      1.00000
     22     -13.4580      1.00000
     23     -12.9968      1.00000
     24     -12.2289      1.00000
     25     -11.7255      1.00000
     26     -11.7214      1.00000
     27     -10.1717      1.00000
     28     -10.1250      1.00000
     29     -10.1217      1.00000
     30      -9.9611      1.00000
     31      -9.9585      1.00000
     32      -9.2340      1.00000
     33      -9.2307      1.00000
     34      -8.6546      1.00000
     35      -8.4875      1.00000
     36      -8.2984      1.00000
     37      -8.2968      1.00000
     38      -8.2164      1.00000
     39      -8.2129      1.00000
     40      -7.8914      1.00000
     41      -7.8332      1.00000
     42      -7.8286      1.00000
     43      -7.4859      1.00000
     44      -5.9799      1.00000
     45      -5.8126      1.00000
     46      -5.8119      1.00000
     47      -4.8295      1.00000
     48      -4.0198      1.00000
     49      -4.0144      1.00000
     50      -3.5413      0.00000
     51      -3.5378      0.00000
     52      -1.0047      0.00000
     53      -0.9969      0.00000
     54      -0.9896      0.00000
     55      -0.6171      0.00000
     56       0.2205      0.00000
     57       0.6220      0.00000
     58       1.2805      0.00000
     59       1.4974      0.00000
     60       1.8176      0.00000
     61       1.8517      0.00000

 k-point    56 :       0.0000    0.0000    0.3947
  band No.  band energies     occupation 
      1     -31.9370      1.00000
      2     -29.7651      1.00000
      3     -29.7602      1.00000
      4     -22.0074      1.00000
      5     -20.2117      1.00000
      6     -20.2093      1.00000
      7     -19.3702      1.00000
      8     -19.3680      1.00000
      9     -19.1262      1.00000
     10     -17.7852      1.00000
     11     -16.9188      1.00000
     12     -16.9160      1.00000
     13     -16.9066      1.00000
     14     -16.9038      1.00000
     15     -16.7695      1.00000
     16     -15.5986      1.00000
     17     -13.7392      1.00000
     18     -13.7366      1.00000
     19     -13.7106      1.00000
     20     -13.5758      1.00000
     21     -13.4618      1.00000
     22     -13.4580      1.00000
     23     -12.9968      1.00000
     24     -12.2289      1.00000
     25     -11.7255      1.00000
     26     -11.7214      1.00000
     27     -10.1717      1.00000
     28     -10.1250      1.00000
     29     -10.1217      1.00000
     30      -9.9611      1.00000
     31      -9.9585      1.00000
     32      -9.2340      1.00000
     33      -9.2307      1.00000
     34      -8.6546      1.00000
     35      -8.4875      1.00000
     36      -8.2984      1.00000
     37      -8.2968      1.00000
     38      -8.2164      1.00000
     39      -8.2129      1.00000
     40      -7.8914      1.00000
     41      -7.8332      1.00000
     42      -7.8286      1.00000
     43      -7.4859      1.00000
     44      -5.9799      1.00000
     45      -5.8126      1.00000
     46      -5.8119      1.00000
     47      -4.8295      1.00000
     48      -4.0198      1.00000
     49      -4.0144      1.00000
     50      -3.5413      0.00000
     51      -3.5378      0.00000
     52      -1.0047      0.00000
     53      -0.9969      0.00000
     54      -0.9896      0.00000
     55      -0.6171      0.00000
     56       0.2209      0.00000
     57       0.6200      0.00000
     58       1.2979      0.00000
     59       1.4774      0.00000
     60       1.8348      0.00000
     61       1.8633      0.00000

 k-point    57 :       0.0000    0.0000    0.4211
  band No.  band energies     occupation 
      1     -31.9370      1.00000
      2     -29.7651      1.00000
      3     -29.7602      1.00000
      4     -22.0074      1.00000
      5     -20.2117      1.00000
      6     -20.2093      1.00000
      7     -19.3702      1.00000
      8     -19.3680      1.00000
      9     -19.1262      1.00000
     10     -17.7852      1.00000
     11     -16.9188      1.00000
     12     -16.9160      1.00000
     13     -16.9066      1.00000
     14     -16.9038      1.00000
     15     -16.7695      1.00000
     16     -15.5986      1.00000
     17     -13.7392      1.00000
     18     -13.7366      1.00000
     19     -13.7106      1.00000
     20     -13.5758      1.00000
     21     -13.4618      1.00000
     22     -13.4580      1.00000
     23     -12.9968      1.00000
     24     -12.2289      1.00000
     25     -11.7255      1.00000
     26     -11.7214      1.00000
     27     -10.1717      1.00000
     28     -10.1250      1.00000
     29     -10.1217      1.00000
     30      -9.9611      1.00000
     31      -9.9585      1.00000
     32      -9.2340      1.00000
     33      -9.2307      1.00000
     34      -8.6546      1.00000
     35      -8.4875      1.00000
     36      -8.2984      1.00000
     37      -8.2968      1.00000
     38      -8.2164      1.00000
     39      -8.2129      1.00000
     40      -7.8914      1.00000
     41      -7.8332      1.00000
     42      -7.8286      1.00000
     43      -7.4859      1.00000
     44      -5.9799      1.00000
     45      -5.8126      1.00000
     46      -5.8119      1.00000
     47      -4.8295      1.00000
     48      -4.0198      1.00000
     49      -4.0144      1.00000
     50      -3.5413      0.00000
     51      -3.5378      0.00000
     52      -1.0047      0.00000
     53      -0.9969      0.00000
     54      -0.9896      0.00000
     55      -0.6171      0.00000
     56       0.2211      0.00000
     57       0.6184      0.00000
     58       1.3152      0.00000
     59       1.4582      0.00000
     60       1.8243      0.00000
     61       1.8889      0.00000

 k-point    58 :       0.0000    0.0000    0.4474
  band No.  band energies     occupation 
      1     -31.9370      1.00000
      2     -29.7651      1.00000
      3     -29.7602      1.00000
      4     -22.0074      1.00000
      5     -20.2117      1.00000
      6     -20.2093      1.00000
      7     -19.3702      1.00000
      8     -19.3680      1.00000
      9     -19.1262      1.00000
     10     -17.7852      1.00000
     11     -16.9188      1.00000
     12     -16.9160      1.00000
     13     -16.9066      1.00000
     14     -16.9038      1.00000
     15     -16.7695      1.00000
     16     -15.5986      1.00000
     17     -13.7392      1.00000
     18     -13.7366      1.00000
     19     -13.7106      1.00000
     20     -13.5758      1.00000
     21     -13.4618      1.00000
     22     -13.4580      1.00000
     23     -12.9968      1.00000
     24     -12.2289      1.00000
     25     -11.7255      1.00000
     26     -11.7214      1.00000
     27     -10.1717      1.00000
     28     -10.1250      1.00000
     29     -10.1217      1.00000
     30      -9.9611      1.00000
     31      -9.9585      1.00000
     32      -9.2340      1.00000
     33      -9.2307      1.00000
     34      -8.6546      1.00000
     35      -8.4875      1.00000
     36      -8.2984      1.00000
     37      -8.2968      1.00000
     38      -8.2164      1.00000
     39      -8.2129      1.00000
     40      -7.8914      1.00000
     41      -7.8332      1.00000
     42      -7.8286      1.00000
     43      -7.4859      1.00000
     44      -5.9799      1.00000
     45      -5.8126      1.00000
     46      -5.8119      1.00000
     47      -4.8295      1.00000
     48      -4.0198      1.00000
     49      -4.0144      1.00000
     50      -3.5413      0.00000
     51      -3.5378      0.00000
     52      -1.0047      0.00000
     53      -0.9969      0.00000
     54      -0.9896      0.00000
     55      -0.6171      0.00000
     56       0.2213      0.00000
     57       0.6172      0.00000
     58       1.3315      0.00000
     59       1.4403      0.00000
     60       1.8190      0.00000
     61       1.8555      0.00000

 k-point    59 :       0.0000    0.0000    0.4737
  band No.  band energies     occupation 
      1     -31.9370      1.00000
      2     -29.7651      1.00000
      3     -29.7602      1.00000
      4     -22.0074      1.00000
      5     -20.2117      1.00000
      6     -20.2093      1.00000
      7     -19.3702      1.00000
      8     -19.3680      1.00000
      9     -19.1262      1.00000
     10     -17.7852      1.00000
     11     -16.9188      1.00000
     12     -16.9160      1.00000
     13     -16.9066      1.00000
     14     -16.9038      1.00000
     15     -16.7695      1.00000
     16     -15.5986      1.00000
     17     -13.7392      1.00000
     18     -13.7366      1.00000
     19     -13.7106      1.00000
     20     -13.5758      1.00000
     21     -13.4618      1.00000
     22     -13.4580      1.00000
     23     -12.9968      1.00000
     24     -12.2289      1.00000
     25     -11.7255      1.00000
     26     -11.7214      1.00000
     27     -10.1717      1.00000
     28     -10.1250      1.00000
     29     -10.1217      1.00000
     30      -9.9611      1.00000
     31      -9.9585      1.00000
     32      -9.2340      1.00000
     33      -9.2307      1.00000
     34      -8.6546      1.00000
     35      -8.4875      1.00000
     36      -8.2984      1.00000
     37      -8.2968      1.00000
     38      -8.2164      1.00000
     39      -8.2129      1.00000
     40      -7.8914      1.00000
     41      -7.8332      1.00000
     42      -7.8286      1.00000
     43      -7.4859      1.00000
     44      -5.9799      1.00000
     45      -5.8126      1.00000
     46      -5.8119      1.00000
     47      -4.8295      1.00000
     48      -4.0198      1.00000
     49      -4.0144      1.00000
     50      -3.5413      0.00000
     51      -3.5378      0.00000
     52      -1.0047      0.00000
     53      -0.9969      0.00000
     54      -0.9896      0.00000
     55      -0.6171      0.00000
     56       0.2215      0.00000
     57       0.6165      0.00000
     58       1.3447      0.00000
     59       1.4263      0.00000
     60       1.8200      0.00000
     61       1.8460      0.00000

 k-point    60 :       0.0000    0.0000    0.5000
  band No.  band energies     occupation 
      1     -31.9370      1.00000
      2     -29.7651      1.00000
      3     -29.7602      1.00000
      4     -22.0074      1.00000
      5     -20.2117      1.00000
      6     -20.2093      1.00000
      7     -19.3702      1.00000
      8     -19.3680      1.00000
      9     -19.1262      1.00000
     10     -17.7852      1.00000
     11     -16.9188      1.00000
     12     -16.9160      1.00000
     13     -16.9066      1.00000
     14     -16.9038      1.00000
     15     -16.7695      1.00000
     16     -15.5986      1.00000
     17     -13.7392      1.00000
     18     -13.7366      1.00000
     19     -13.7106      1.00000
     20     -13.5758      1.00000
     21     -13.4618      1.00000
     22     -13.4580      1.00000
     23     -12.9968      1.00000
     24     -12.2289      1.00000
     25     -11.7255      1.00000
     26     -11.7214      1.00000
     27     -10.1717      1.00000
     28     -10.1250      1.00000
     29     -10.1217      1.00000
     30      -9.9611      1.00000
     31      -9.9585      1.00000
     32      -9.2340      1.00000
     33      -9.2307      1.00000
     34      -8.6546      1.00000
     35      -8.4875      1.00000
     36      -8.2984      1.00000
     37      -8.2968      1.00000
     38      -8.2164      1.00000
     39      -8.2129      1.00000
     40      -7.8914      1.00000
     41      -7.8332      1.00000
     42      -7.8286      1.00000
     43      -7.4859      1.00000
     44      -5.9799      1.00000
     45      -5.8126      1.00000
     46      -5.8119      1.00000
     47      -4.8295      1.00000
     48      -4.0198      1.00000
     49      -4.0144      1.00000
     50      -3.5413      0.00000
     51      -3.5378      0.00000
     52      -1.0047      0.00000
     53      -0.9969      0.00000
     54      -0.9896      0.00000
     55      -0.6171      0.00000
     56       0.2215      0.00000
     57       0.6163      0.00000
     58       1.3504      0.00000
     59       1.4203      0.00000
     60       1.8167      0.00000
     61       1.8388      0.00000

 k-point    61 :       0.5000    0.5000    0.5000
  band No.  band energies     occupation 
      1     -31.9370      1.00000
      2     -29.7652      1.00000
      3     -29.7603      1.00000
      4     -21.9948      1.00000
      5     -20.3703      1.00000
      6     -20.2725      1.00000
      7     -19.3036      1.00000
      8     -19.0407      1.00000
      9     -18.6223      1.00000
     10     -18.3729      1.00000
     11     -17.9727      1.00000
     12     -17.2067      1.00000
     13     -16.7699      1.00000
     14     -16.5694      1.00000
     15     -15.6176      1.00000
     16     -15.1050      1.00000
     17     -14.5824      1.00000
     18     -14.3647      1.00000
     19     -13.7106      1.00000
     20     -13.4620      1.00000
     21     -13.4586      1.00000
     22     -13.3626      1.00000
     23     -12.9044      1.00000
     24     -12.1978      1.00000
     25     -11.5845      1.00000
     26     -11.3997      1.00000
     27     -10.1564      1.00000
     28     -10.1348      1.00000
     29     -10.0967      1.00000
     30     -10.0716      1.00000
     31     -10.0408      1.00000
     32      -9.2347      1.00000
     33      -9.2309      1.00000
     34      -8.9316      1.00000
     35      -8.6660      1.00000
     36      -8.6358      1.00000
     37      -8.4677      1.00000
     38      -8.0240      1.00000
     39      -7.9419      1.00000
     40      -7.8423      1.00000
     41      -7.7395      1.00000
     42      -7.5413      1.00000
     43      -6.4750      1.00000
     44      -6.4500      1.00000
     45      -5.5571      1.00000
     46      -5.5057      1.00000
     47      -5.4960      1.00000
     48      -5.4112      1.00000
     49      -4.6454      1.00000
     50      -2.8372      0.00000
     51      -1.5570      0.00000
     52      -1.4301      0.00000
     53      -1.0347      0.00000
     54      -0.9934      0.00000
     55      -0.5793      0.00000
     56       0.2896      0.00000
     57       0.6887      0.00000
     58       0.7472      0.00000
     59       1.0802      0.00000
     60       1.2863      0.00000
     61       1.6086      0.00000

 k-point    62 :       0.4737    0.4737    0.4737
  band No.  band energies     occupation 
      1     -31.9370      1.00000
      2     -29.7652      1.00000
      3     -29.7603      1.00000
      4     -21.9948      1.00000
      5     -20.3694      1.00000
      6     -20.2753      1.00000
      7     -19.2966      1.00000
      8     -19.0407      1.00000
      9     -18.6409      1.00000
     10     -18.3526      1.00000
     11     -17.9694      1.00000
     12     -17.2450      1.00000
     13     -16.7699      1.00000
     14     -16.5281      1.00000
     15     -15.6246      1.00000
     16     -15.1272      1.00000
     17     -14.5591      1.00000
     18     -14.3590      1.00000
     19     -13.7106      1.00000
     20     -13.4620      1.00000
     21     -13.4587      1.00000
     22     -13.3970      1.00000
     23     -12.8829      1.00000
     24     -12.1976      1.00000
     25     -11.5812      1.00000
     26     -11.4019      1.00000
     27     -10.1562      1.00000
     28     -10.1351      1.00000
     29     -10.0972      1.00000
     30     -10.0717      1.00000
     31     -10.0408      1.00000
     32      -9.2347      1.00000
     33      -9.2309      1.00000
     34      -8.9297      1.00000
     35      -8.6714      1.00000
     36      -8.6424      1.00000
     37      -8.4648      1.00000
     38      -8.0179      1.00000
     39      -7.9418      1.00000
     40      -7.8469      1.00000
     41      -7.7345      1.00000
     42      -7.5318      1.00000
     43      -6.5815      1.00000
     44      -6.3411      1.00000
     45      -5.5542      1.00000
     46      -5.5259      1.00000
     47      -5.4723      1.00000
     48      -5.4140      1.00000
     49      -4.6797      1.00000
     50      -2.7964      0.00000
     51      -1.5532      0.00000
     52      -1.4398      0.00000
     53      -1.0596      0.00000
     54      -1.0262      0.00000
     55      -0.5483      0.00000
     56       0.3145      0.00000
     57       0.6920      0.00000
     58       0.7510      0.00000
     59       1.0823      0.00000
     60       1.2915      0.00000
     61       1.5539      0.00000

 k-point    63 :       0.4474    0.4474    0.4474
  band No.  band energies     occupation 
      1     -31.9370      1.00000
      2     -29.7652      1.00000
      3     -29.7603      1.00000
      4     -21.9945      1.00000
      5     -20.3669      1.00000
      6     -20.2832      1.00000
      7     -19.2768      1.00000
      8     -19.0402      1.00000
      9     -18.6852      1.00000
     10     -18.3034      1.00000
     11     -17.9602      1.00000
     12     -17.3383      1.00000
     13     -16.7699      1.00000
     14     -16.4253      1.00000
     15     -15.6455      1.00000
     16     -15.1846      1.00000
     17     -14.4987      1.00000
     18     -14.3421      1.00000
     19     -13.7106      1.00000
     20     -13.4862      1.00000
     21     -13.4616      1.00000
     22     -13.4578      1.00000
     23     -12.8342      1.00000
     24     -12.1970      1.00000
     25     -11.5714      1.00000
     26     -11.4082      1.00000
     27     -10.1556      1.00000
     28     -10.1358      1.00000
     29     -10.0985      1.00000
     30     -10.0723      1.00000
     31     -10.0403      1.00000
     32      -9.2347      1.00000
     33      -9.2309      1.00000
     34      -8.9241      1.00000
     35      -8.6948      1.00000
     36      -8.6500      1.00000
     37      -8.4587      1.00000
     38      -8.0023      1.00000
     39      -7.9415      1.00000
     40      -7.8578      1.00000
     41      -7.7225      1.00000
     42      -7.5028      1.00000
     43      -6.6971      1.00000
     44      -6.2183      1.00000
     45      -5.5483      1.00000
     46      -5.5418      1.00000
     47      -5.4441      1.00000
     48      -5.4221      1.00000
     49      -4.7733      1.00000
     50      -2.6823      0.00000
     51      -1.5421      0.00000
     52      -1.4685      0.00000
     53      -1.1293      0.00000
     54      -1.1017      0.00000
     55      -0.4785      0.00000
     56       0.3848      0.00000
     57       0.7020      0.00000
     58       0.7651      0.00000
     59       1.0876      0.00000
     60       1.3032      0.00000
     61       1.4653      0.00000

 k-point    64 :       0.4211    0.4211    0.4211
  band No.  band energies     occupation 
      1     -31.9370      1.00000
      2     -29.7652      1.00000
      3     -29.7603      1.00000
      4     -21.9942      1.00000
      5     -20.3627      1.00000
      6     -20.2947      1.00000
      7     -19.2480      1.00000
      8     -19.0366      1.00000
      9     -18.7401      1.00000
     10     -18.2403      1.00000
     11     -17.9465      1.00000
     12     -17.4548      1.00000
     13     -16.7699      1.00000
     14     -16.2924      1.00000
     15     -15.6788      1.00000
     16     -15.2609      1.00000
     17     -14.4170      1.00000
     18     -14.3154      1.00000
     19     -13.7107      1.00000
     20     -13.6028      1.00000
     21     -13.4618      1.00000
     22     -13.4583      1.00000
     23     -12.7814      1.00000
     24     -12.1962      1.00000
     25     -11.5556      1.00000
     26     -11.4186      1.00000
     27     -10.1549      1.00000
     28     -10.1368      1.00000
     29     -10.1003      1.00000
     30     -10.0739      1.00000
     31     -10.0391      1.00000
     32      -9.2347      1.00000
     33      -9.2309      1.00000
     34      -8.9150      1.00000
     35      -8.7329      1.00000
     36      -8.6525      1.00000
     37      -8.4529      1.00000
     38      -7.9836      1.00000
     39      -7.9410      1.00000
     40      -7.8706      1.00000
     41      -7.7084      1.00000
     42      -7.4536      1.00000
     43      -6.8104      1.00000
     44      -6.0931      1.00000
     45      -5.5558      1.00000
     46      -5.5330      1.00000
     47      -5.4370      1.00000
     48      -5.4164      1.00000
     49      -4.9058      1.00000
     50      -2.5135      0.00000
     51      -1.5244      0.00000
     52      -1.5148      0.00000
     53      -1.2324      0.00000
     54      -1.1899      0.00000
     55      -0.4015      0.00000
     56       0.4878      0.00000
     57       0.7180      0.00000
     58       0.7795      0.00000
     59       1.0911      0.00000
     60       1.3252      0.00000
     61       1.3817      0.00000

 k-point    65 :       0.3947    0.3947    0.3947
  band No.  band energies     occupation 
      1     -31.9370      1.00000
      2     -29.7652      1.00000
      3     -29.7603      1.00000
      4     -21.9938      1.00000
      5     -20.3569      1.00000
      6     -20.3083      1.00000
      7     -19.2172      1.00000
      8     -19.0249      1.00000
      9     -18.7985      1.00000
     10     -18.1703      1.00000
     11     -17.9323      1.00000
     12     -17.5739      1.00000
     13     -16.7699      1.00000
     14     -16.1480      1.00000
     15     -15.7232      1.00000
     16     -15.3436      1.00000
     17     -14.3254      1.00000
     18     -14.2804      1.00000
     19     -13.7356      1.00000
     20     -13.7103      1.00000
     21     -13.4619      1.00000
     22     -13.4583      1.00000
     23     -12.7372      1.00000
     24     -12.1952      1.00000
     25     -11.5348      1.00000
     26     -11.4327      1.00000
     27     -10.1539      1.00000
     28     -10.1380      1.00000
     29     -10.1023      1.00000
     30     -10.0766      1.00000
     31     -10.0371      1.00000
     32      -9.2346      1.00000
     33      -9.2309      1.00000
     34      -8.9025      1.00000
     35      -8.7742      1.00000
     36      -8.6534      1.00000
     37      -8.4488      1.00000
     38      -7.9676      1.00000
     39      -7.9404      1.00000
     40      -7.8822      1.00000
     41      -7.6957      1.00000
     42      -7.3850      1.00000
     43      -6.9212      1.00000
     44      -5.9656      1.00000
     45      -5.5562      1.00000
     46      -5.5246      1.00000
     47      -5.4553      1.00000
     48      -5.3951      1.00000
     49      -5.0531      1.00000
     50      -2.3077      0.00000
     51      -1.5787      0.00000
     52      -1.4987      0.00000
     53      -1.3582      0.00000
     54      -1.2746      0.00000
     55      -0.3344      0.00000
     56       0.6159      0.00000
     57       0.7396      0.00000
     58       0.8031      0.00000
     59       1.0811      0.00000
     60       1.3201      0.00000
     61       1.3552      0.00000

 k-point    66 :       0.3684    0.3684    0.3684
  band No.  band energies     occupation 
      1     -31.9370      1.00000
      2     -29.7652      1.00000
      3     -29.7603      1.00000
      4     -21.9934      1.00000
      5     -20.3496      1.00000
      6     -20.3219      1.00000
      7     -19.1941      1.00000
      8     -18.9977      1.00000
      9     -18.8575      1.00000
     10     -18.0962      1.00000
     11     -17.9302      1.00000
     12     -17.6756      1.00000
     13     -16.7699      1.00000
     14     -16.0052      1.00000
     15     -15.7768      1.00000
     16     -15.4220      1.00000
     17     -14.2395      1.00000
     18     -14.2330      1.00000
     19     -13.8721      1.00000
     20     -13.7106      1.00000
     21     -13.4619      1.00000
     22     -13.4583      1.00000
     23     -12.7074      1.00000
     24     -12.1944      1.00000
     25     -11.5108      1.00000
     26     -11.4502      1.00000
     27     -10.1530      1.00000
     28     -10.1392      1.00000
     29     -10.1039      1.00000
     30     -10.0796      1.00000
     31     -10.0348      1.00000
     32      -9.2346      1.00000
     33      -9.2309      1.00000
     34      -8.8877      1.00000
     35      -8.8110      1.00000
     36      -8.6538      1.00000
     37      -8.4463      1.00000
     38      -7.9571      1.00000
     39      -7.9397      1.00000
     40      -7.8908      1.00000
     41      -7.6865      1.00000
     42      -7.2997      1.00000
     43      -7.0295      1.00000
     44      -5.8359      1.00000
     45      -5.5467      1.00000
     46      -5.5386      1.00000
     47      -5.4781      1.00000
     48      -5.3804      1.00000
     49      -5.1824      1.00000
     50      -2.0789      0.00000
     51      -1.6551      0.00000
     52      -1.4988      0.00000
     53      -1.4678      0.00000
     54      -1.3474      0.00000
     55      -0.2870      0.00000
     56       0.7579      0.00000
     57       0.7679      0.00000
     58       0.8262      0.00000
     59       1.0486      0.00000
     60       1.3020      0.00000
     61       1.3968      0.00000

 k-point    67 :       0.3421    0.3421    0.3421
  band No.  band energies     occupation 
      1     -31.9370      1.00000
      2     -29.7652      1.00000
      3     -29.7603      1.00000
      4     -21.9933      1.00000
      5     -20.3410      1.00000
      6     -20.3339      1.00000
      7     -19.1843      1.00000
      8     -18.9522      1.00000
      9     -18.9157      1.00000
     10     -18.0195      1.00000
     11     -17.9681      1.00000
     12     -17.7272      1.00000
     13     -16.7700      1.00000
     14     -15.8859      1.00000
     15     -15.8379      1.00000
     16     -15.4755      1.00000
     17     -14.1935      1.00000
     18     -14.1708      1.00000
     19     -13.9817      1.00000
     20     -13.7106      1.00000
     21     -13.4620      1.00000
     22     -13.4583      1.00000
     23     -12.6937      1.00000
     24     -12.1940      1.00000
     25     -11.4865      1.00000
     26     -11.4705      1.00000
     27     -10.1523      1.00000
     28     -10.1402      1.00000
     29     -10.1044      1.00000
     30     -10.0820      1.00000
     31     -10.0331      1.00000
     32      -9.2346      1.00000
     33      -9.2309      1.00000
     34      -8.8762      1.00000
     35      -8.8338      1.00000
     36      -8.6540      1.00000
     37      -8.4450      1.00000
     38      -7.9528      1.00000
     39      -7.9392      1.00000
     40      -7.8953      1.00000
     41      -7.6821      1.00000
     42      -7.2024      1.00000
     43      -7.1352      1.00000
     44      -5.7041      1.00000
     45      -5.6169      1.00000
     46      -5.5253      1.00000
     47      -5.5033      1.00000
     48      -5.3740      1.00000
     49      -5.2462      1.00000
     50      -1.8555      0.00000
     51      -1.7230      0.00000
     52      -1.6486      0.00000
     53      -1.4318      0.00000
     54      -1.4032      0.00000
     55      -0.2648      0.00000
     56       0.7820      0.00000
     57       0.8398      0.00000
     58       1.0154      0.00000
     59       1.2728      0.00000
     60       1.3159      0.00000
     61       1.4426      0.00000

 k-point    68 :       0.3158    0.3158    0.3158
  band No.  band energies     occupation 
      1     -31.9369      1.00000
      2     -29.7652      1.00000
      3     -29.7603      1.00000
      4     -21.9933      1.00000
      5     -20.3434      1.00000
      6     -20.3307      1.00000
      7     -19.1858      1.00000
      8     -18.9724      1.00000
      9     -18.8940      1.00000
     10     -18.0498      1.00000
     11     -17.9406      1.00000
     12     -17.7212      1.00000
     13     -16.7700      1.00000
     14     -15.9053      1.00000
     15     -15.8366      1.00000
     16     -15.4583      1.00000
     17     -14.2393      1.00000
     18     -14.1447      1.00000
     19     -13.9618      1.00000
     20     -13.7106      1.00000
     21     -13.4620      1.00000
     22     -13.4583      1.00000
     23     -12.6964      1.00000
     24     -12.1941      1.00000
     25     -11.4937      1.00000
     26     -11.4645      1.00000
     27     -10.1520      1.00000
     28     -10.1404      1.00000
     29     -10.1033      1.00000
     30     -10.0830      1.00000
     31     -10.0329      1.00000
     32      -9.2345      1.00000
     33      -9.2309      1.00000
     34      -8.8807      1.00000
     35      -8.8268      1.00000
     36      -8.6541      1.00000
     37      -8.4446      1.00000
     38      -7.9536      1.00000
     39      -7.9389      1.00000
     40      -7.8955      1.00000
     41      -7.6829      1.00000
     42      -7.2383      1.00000
     43      -7.0984      1.00000
     44      -5.7555      1.00000
     45      -5.5706      1.00000
     46      -5.5360      1.00000
     47      -5.4918      1.00000
     48      -5.3749      1.00000
     49      -5.2387      1.00000
     50      -1.8737      0.00000
     51      -1.8046      0.00000
     52      -1.5500      0.00000
     53      -1.4401      0.00000
     54      -1.3909      0.00000
     55      -0.2693      0.00000
     56       0.7625      0.00000
     57       0.8539      0.00000
     58       0.9379      0.00000
     59       1.0249      0.00000
     60       1.3081      0.00000
     61       1.4426      0.00000

 k-point    69 :       0.2895    0.2895    0.2895
  band No.  band energies     occupation 
      1     -31.9370      1.00000
      2     -29.7652      1.00000
      3     -29.7603      1.00000
      4     -21.9937      1.00000
      5     -20.3486      1.00000
      6     -20.3195      1.00000
      7     -19.1941      1.00000
      8     -19.0270      1.00000
      9     -18.8340      1.00000
     10     -18.1406      1.00000
     11     -17.8601      1.00000
     12     -17.6865      1.00000
     13     -16.7700      1.00000
     14     -15.9775      1.00000
     15     -15.8734      1.00000
     16     -15.3556      1.00000
     17     -14.3787      1.00000
     18     -14.0945      1.00000
     19     -13.8706      1.00000
     20     -13.7106      1.00000
     21     -13.4620      1.00000
     22     -13.4582      1.00000
     23     -12.7143      1.00000
     24     -12.1950      1.00000
     25     -11.5183      1.00000
     26     -11.4490      1.00000
     27     -10.1523      1.00000
     28     -10.1393      1.00000
     29     -10.1002      1.00000
     30     -10.0818      1.00000
     31     -10.0345      1.00000
     32      -9.2345      1.00000
     33      -9.2309      1.00000
     34      -8.8868      1.00000
     35      -8.8026      1.00000
     36      -8.6541      1.00000
     37      -8.4447      1.00000
     38      -7.9588      1.00000
     39      -7.9377      1.00000
     40      -7.8923      1.00000
     41      -7.6888      1.00000
     42      -7.3386      1.00000
     43      -6.9947      1.00000
     44      -5.9152      1.00000
     45      -5.5679      1.00000
     46      -5.4641      1.00000
     47      -5.4339      1.00000
     48      -5.3740      1.00000
     49      -5.1940      1.00000
     50      -1.9849      0.00000
     51      -1.9641      0.00000
     52      -1.4559      0.00000
     53      -1.3477      0.00000
     54      -1.2869      0.00000
     55      -0.2990      0.00000
     56       0.6995      0.00000
     57       0.7219      0.00000
     58       0.8786      0.00000
     59       1.0621      0.00000
     60       1.2720      0.00000
     61       1.4742      0.00000

 k-point    70 :       0.2632    0.2632    0.2632
  band No.  band energies     occupation 
      1     -31.9370      1.00000
      2     -29.7652      1.00000
      3     -29.7603      1.00000
      4     -21.9944      1.00000
      5     -20.3493      1.00000
      6     -20.3074      1.00000
      7     -19.2062      1.00000
      8     -19.0791      1.00000
      9     -18.7856      1.00000
     10     -18.2146      1.00000
     11     -17.7782      1.00000
     12     -17.6388      1.00000
     13     -16.7700      1.00000
     14     -16.0537      1.00000
     15     -15.9505      1.00000
     16     -15.2156      1.00000
     17     -14.5261      1.00000
     18     -14.0443      1.00000
     19     -13.7685      1.00000
     20     -13.7104      1.00000
     21     -13.4620      1.00000
     22     -13.4582      1.00000
     23     -12.7463      1.00000
     24     -12.1967      1.00000
     25     -11.5441      1.00000
     26     -11.4425      1.00000
     27     -10.1529      1.00000
     28     -10.1371      1.00000
     29     -10.0948      1.00000
     30     -10.0783      1.00000
     31     -10.0377      1.00000
     32      -9.2344      1.00000
     33      -9.2308      1.00000
     34      -8.8824      1.00000
     35      -8.7721      1.00000
     36      -8.6541      1.00000
     37      -8.4451      1.00000
     38      -7.9671      1.00000
     39      -7.9351      1.00000
     40      -7.8868      1.00000
     41      -7.6993      1.00000
     42      -7.4362      1.00000
     43      -6.9008      1.00000
     44      -6.0698      1.00000
     45      -5.6006      1.00000
     46      -5.4630      1.00000
     47      -5.3464      1.00000
     48      -5.2964      1.00000
     49      -5.1294      1.00000
     50      -2.1260      0.00000
     51      -2.1098      0.00000
     52      -1.4512      0.00000
     53      -1.3018      0.00000
     54      -1.0154      0.00000
     55      -0.3510      0.00000
     56       0.5044      0.00000
     57       0.6323      0.00000
     58       0.8943      0.00000
     59       1.1174      0.00000
     60       1.2336      0.00000
     61       1.5235      0.00000

 k-point    71 :       0.2368    0.2368    0.2368
  band No.  band energies     occupation 
      1     -31.9370      1.00000
      2     -29.7652      1.00000
      3     -29.7603      1.00000
      4     -21.9954      1.00000
      5     -20.3451      1.00000
      6     -20.2946      1.00000
      7     -19.2204      1.00000
      8     -19.1284      1.00000
      9     -18.7664      1.00000
     10     -18.2512      1.00000
     11     -17.6951      1.00000
     12     -17.5837      1.00000
     13     -16.7700      1.00000
     14     -16.1329      1.00000
     15     -16.0413      1.00000
     16     -15.0717      1.00000
     17     -14.6651      1.00000
     18     -13.9949      1.00000
     19     -13.7108      1.00000
     20     -13.6641      1.00000
     21     -13.4620      1.00000
     22     -13.4582      1.00000
     23     -12.7908      1.00000
     24     -12.1994      1.00000
     25     -11.5705      1.00000
     26     -11.4469      1.00000
     27     -10.1535      1.00000
     28     -10.1342      1.00000
     29     -10.0871      1.00000
     30     -10.0737      1.00000
     31     -10.0406      1.00000
     32      -9.2344      1.00000
     33      -9.2308      1.00000
     34      -8.8653      1.00000
     35      -8.7374      1.00000
     36      -8.6540      1.00000
     37      -8.4456      1.00000
     38      -7.9776      1.00000
     39      -7.9311      1.00000
     40      -7.8800      1.00000
     41      -7.7136      1.00000
     42      -7.5309      1.00000
     43      -6.8342      1.00000
     44      -6.1973      1.00000
     45      -5.6337      1.00000
     46      -5.4908      1.00000
     47      -5.2916      1.00000
     48      -5.1570      1.00000
     49      -5.0505      1.00000
     50      -2.2887      0.00000
     51      -2.2447      0.00000
     52      -1.4274      0.00000
     53      -1.2553      0.00000
     54      -0.7416      0.00000
     55      -0.4204      0.00000
     56       0.3317      0.00000
     57       0.5603      0.00000
     58       0.8884      0.00000
     59       1.1711      0.00000
     60       1.2368      0.00000
     61       1.5565      0.00000

 k-point    72 :       0.2105    0.2105    0.2105
  band No.  band energies     occupation 
      1     -31.9370      1.00000
      2     -29.7652      1.00000
      3     -29.7603      1.00000
      4     -21.9968      1.00000
      5     -20.3361      1.00000
      6     -20.2814      1.00000
      7     -19.2360      1.00000
      8     -19.1743      1.00000
      9     -18.7874      1.00000
     10     -18.2390      1.00000
     11     -17.6108      1.00000
     12     -17.5231      1.00000
     13     -16.7700      1.00000
     14     -16.2147      1.00000
     15     -16.1374      1.00000
     16     -14.9757      1.00000
     17     -14.7493      1.00000
     18     -13.9476      1.00000
     19     -13.7107      1.00000
     20     -13.5616      1.00000
     21     -13.4619      1.00000
     22     -13.4581      1.00000
     23     -12.8464      1.00000
     24     -12.2028      1.00000
     25     -11.5968      1.00000
     26     -11.4630      1.00000
     27     -10.1544      1.00000
     28     -10.1314      1.00000
     29     -10.0799      1.00000
     30     -10.0687      1.00000
     31     -10.0388      1.00000
     32      -9.2343      1.00000
     33      -9.2308      1.00000
     34      -8.8352      1.00000
     35      -8.6991      1.00000
     36      -8.6537      1.00000
     37      -8.4461      1.00000
     38      -7.9899      1.00000
     39      -7.9259      1.00000
     40      -7.8727      1.00000
     41      -7.7304      1.00000
     42      -7.6227      1.00000
     43      -6.8238      1.00000
     44      -6.2682      1.00000
     45      -5.6662      1.00000
     46      -5.5320      1.00000
     47      -5.2251      1.00000
     48      -5.0161      1.00000
     49      -4.9589      1.00000
     50      -2.4518      0.00000
     51      -2.3880      0.00000
     52      -1.3873      0.00000
     53      -1.2093      0.00000
     54      -0.5029      0.00000
     55      -0.4710      0.00000
     56       0.1695      0.00000
     57       0.4918      0.00000
     58       0.8627      0.00000
     59       1.2073      0.00000
     60       1.2911      0.00000
     61       1.5164      0.00000

 k-point    73 :       0.1842    0.1842    0.1842
  band No.  band energies     occupation 
      1     -31.9370      1.00000
      2     -29.7652      1.00000
      3     -29.7603      1.00000
      4     -21.9984      1.00000
      5     -20.3225      1.00000
      6     -20.2682      1.00000
      7     -19.2525      1.00000
      8     -19.2166      1.00000
      9     -18.8392      1.00000
     10     -18.1876      1.00000
     11     -17.5257      1.00000
     12     -17.4583      1.00000
     13     -16.7700      1.00000
     14     -16.2984      1.00000
     15     -16.2355      1.00000
     16     -15.0349      1.00000
     17     -14.6722      1.00000
     18     -13.9032      1.00000
     19     -13.7107      1.00000
     20     -13.4644      1.00000
     21     -13.4602      1.00000
     22     -13.4578      1.00000
     23     -12.9117      1.00000
     24     -12.2068      1.00000
     25     -11.6222      1.00000
     26     -11.4901      1.00000
     27     -10.1555      1.00000
     28     -10.1291      1.00000
     29     -10.0831      1.00000
     30     -10.0559      1.00000
     31     -10.0299      1.00000
     32      -9.2342      1.00000
     33      -9.2308      1.00000
     34      -8.7929      1.00000
     35      -8.6603      1.00000
     36      -8.6505      1.00000
     37      -8.4462      1.00000
     38      -8.0038      1.00000
     39      -7.9198      1.00000
     40      -7.8653      1.00000
     41      -7.7488      1.00000
     42      -7.7112      1.00000
     43      -6.8851      1.00000
     44      -6.2671      1.00000
     45      -5.6970      1.00000
     46      -5.5796      1.00000
     47      -5.1541      1.00000
     48      -4.8740      1.00000
     49      -4.8552      1.00000
     50      -2.6143      0.00000
     51      -2.5387      0.00000
     52      -1.3343      0.00000
     53      -1.1650      0.00000
     54      -0.5894      0.00000
     55      -0.2402      0.00000
     56       0.0564      0.00000
     57       0.4295      0.00000
     58       0.8255      0.00000
     59       1.2360      0.00000
     60       1.3665      0.00000
     61       1.4784      0.00000

 k-point    74 :       0.1579    0.1579    0.1579
  band No.  band energies     occupation 
      1     -31.9370      1.00000
      2     -29.7651      1.00000
      3     -29.7603      1.00000
      4     -22.0002      1.00000
      5     -20.3051      1.00000
      6     -20.2553      1.00000
      7     -19.2702      1.00000
      8     -19.2547      1.00000
      9     -18.9040      1.00000
     10     -18.1152      1.00000
     11     -17.4396      1.00000
     12     -17.3898      1.00000
     13     -16.7700      1.00000
     14     -16.3837      1.00000
     15     -16.3344      1.00000
     16     -15.1539      1.00000
     17     -14.5288      1.00000
     18     -13.8625      1.00000
     19     -13.7107      1.00000
     20     -13.4620      1.00000
     21     -13.4581      1.00000
     22     -13.3692      1.00000
     23     -12.9844      1.00000
     24     -12.2112      1.00000
     25     -11.6462      1.00000
     26     -11.5262      1.00000
     27     -10.1572      1.00000
     28     -10.1274      1.00000
     29     -10.0916      1.00000
     30     -10.0381      1.00000
     31     -10.0169      1.00000
     32      -9.2342      1.00000
     33      -9.2308      1.00000
     34      -8.7399      1.00000
     35      -8.6544      1.00000
     36      -8.6110      1.00000
     37      -8.4455      1.00000
     38      -8.0197      1.00000
     39      -7.9134      1.00000
     40      -7.8590      1.00000
     41      -7.7968      1.00000
     42      -7.7663      1.00000
     43      -6.9921      1.00000
     44      -6.2204      1.00000
     45      -5.7254      1.00000
     46      -5.6295      1.00000
     47      -5.0828      1.00000
     48      -4.7411      1.00000
     49      -4.7298      1.00000
     50      -2.7755      0.00000
     51      -2.6957      0.00000
     52      -1.2728      0.00000
     53      -1.1237      0.00000
     54      -0.6781      0.00000
     55      -0.2174      0.00000
     56       0.1650      0.00000
     57       0.3741      0.00000
     58       0.7853      0.00000
     59       1.2446      0.00000
     60       1.4310      0.00000
     61       1.4930      0.00000

 k-point    75 :       0.1316    0.1316    0.1316
  band No.  band energies     occupation 
      1     -31.9370      1.00000
      2     -29.7652      1.00000
      3     -29.7603      1.00000
      4     -22.0020      1.00000
      5     -20.2850      1.00000
      6     -20.2431      1.00000
      7     -19.2899      1.00000
      8     -19.2876      1.00000
      9     -18.9687      1.00000
     10     -18.0355      1.00000
     11     -17.3529      1.00000
     12     -17.3180      1.00000
     13     -16.7701      1.00000
     14     -16.4701      1.00000
     15     -16.4333      1.00000
     16     -15.2731      1.00000
     17     -14.3769      1.00000
     18     -13.8265      1.00000
     19     -13.7107      1.00000
     20     -13.4619      1.00000
     21     -13.4581      1.00000
     22     -13.2898      1.00000
     23     -13.0588      1.00000
     24     -12.2157      1.00000
     25     -11.6679      1.00000
     26     -11.5685      1.00000
     27     -10.1595      1.00000
     28     -10.1264      1.00000
     29     -10.1007      1.00000
     30     -10.0190      1.00000
     31     -10.0026      1.00000
     32      -9.2341      1.00000
     33      -9.2308      1.00000
     34      -8.6793      1.00000
     35      -8.6529      1.00000
     36      -8.5633      1.00000
     37      -8.4432      1.00000
     38      -8.0386      1.00000
     39      -7.9082      1.00000
     40      -7.8841      1.00000
     41      -7.8465      1.00000
     42      -7.7841      1.00000
     43      -7.1135      1.00000
     44      -6.1591      1.00000
     45      -5.7507      1.00000
     46      -5.6781      1.00000
     47      -5.0147      1.00000
     48      -4.6147      1.00000
     49      -4.5866      1.00000
     50      -2.9347      0.00000
     51      -2.8579      0.00000
     52      -1.2077      0.00000
     53      -1.0866      0.00000
     54      -0.7630      0.00000
     55      -0.3204      0.00000
     56       0.3264      0.00000
     57       0.4172      0.00000
     58       0.7478      0.00000
     59       1.2280      0.00000
     60       1.4775      0.00000
     61       1.5688      0.00000

 k-point    76 :       0.1053    0.1053    0.1053
  band No.  band energies     occupation 
      1     -31.9370      1.00000
      2     -29.7651      1.00000
      3     -29.7603      1.00000
      4     -22.0038      1.00000
      5     -20.2637      1.00000
      6     -20.2322      1.00000
      7     -19.3169      1.00000
      8     -19.3093      1.00000
      9     -19.0258      1.00000
     10     -17.9574      1.00000
     11     -17.2655      1.00000
     12     -17.2432      1.00000
     13     -16.7701      1.00000
     14     -16.5575      1.00000
     15     -16.5317      1.00000
     16     -15.3809      1.00000
     17     -14.2260      1.00000
     18     -13.7958      1.00000
     19     -13.7107      1.00000
     20     -13.4619      1.00000
     21     -13.4581      1.00000
     22     -13.2539      1.00000
     23     -13.1066      1.00000
     24     -12.2199      1.00000
     25     -11.6868      1.00000
     26     -11.6132      1.00000
     27     -10.1624      1.00000
     28     -10.1257      1.00000
     29     -10.1087      1.00000
     30     -10.0004      1.00000
     31      -9.9886      1.00000
     32      -9.2341      1.00000
     33      -9.2308      1.00000
     34      -8.6555      1.00000
     35      -8.6099      1.00000
     36      -8.5131      1.00000
     37      -8.4369      1.00000
     38      -8.0620      1.00000
     39      -7.9635      1.00000
     40      -7.9005      1.00000
     41      -7.8430      1.00000
     42      -7.7997      1.00000
     43      -7.2313      1.00000
     44      -6.0994      1.00000
     45      -5.7722      1.00000
     46      -5.7225      1.00000
     47      -4.9533      1.00000
     48      -4.4794      1.00000
     49      -4.4438      1.00000
     50      -3.0906      0.00000
     51      -3.0230      0.00000
     52      -1.1441      0.00000
     53      -1.0547      0.00000
     54      -0.8396      0.00000
     55      -0.4220      0.00000
     56       0.2869      0.00000
     57       0.7003      0.00000
     58       0.7154      0.00000
     59       1.2005      0.00000
     60       1.5336      0.00000
     61       1.6583      0.00000

 k-point    77 :       0.0789    0.0789    0.0789
  band No.  band energies     occupation 
      1     -31.9370      1.00000
      2     -29.7651      1.00000
      3     -29.7603      1.00000
      4     -22.0052      1.00000
      5     -20.2434      1.00000
      6     -20.2231      1.00000
      7     -19.3397      1.00000
      8     -19.3303      1.00000
      9     -19.0708      1.00000
     10     -17.8879      1.00000
     11     -17.1776      1.00000
     12     -17.1651      1.00000
     13     -16.7702      1.00000
     14     -16.6454      1.00000
     15     -16.6290      1.00000
     16     -15.4716      1.00000
     17     -14.0792      1.00000
     18     -13.7711      1.00000
     19     -13.7106      1.00000
     20     -13.4619      1.00000
     21     -13.4581      1.00000
     22     -13.3091      1.00000
     23     -13.0825      1.00000
     24     -12.2236      1.00000
     25     -11.7023      1.00000
     26     -11.6558      1.00000
     27     -10.1657      1.00000
     28     -10.1253      1.00000
     29     -10.1148      1.00000
     30      -9.9842      1.00000
     31      -9.9763      1.00000
     32      -9.2340      1.00000
     33      -9.2308      1.00000
     34      -8.6548      1.00000
     35      -8.5477      1.00000
     36      -8.4614      1.00000
     37      -8.4197      1.00000
     38      -8.0923      1.00000
     39      -8.0391      1.00000
     40      -7.8963      1.00000
     41      -7.8387      1.00000
     42      -7.8124      1.00000
     43      -7.3351      1.00000
     44      -6.0489      1.00000
     45      -5.7895      1.00000
     46      -5.7601      1.00000
     47      -4.9016      1.00000
     48      -4.3378      1.00000
     49      -4.3039      1.00000
     50      -3.2406      0.00000
     51      -3.1878      0.00000
     52      -1.0873      0.00000
     53      -1.0289      0.00000
     54      -0.9040      0.00000
     55      -0.5056      0.00000
     56       0.2558      0.00000
     57       0.6892      0.00000
     58       1.1133      0.00000
     59       1.1743      0.00000
     60       1.5907      0.00000
     61       1.7355      0.00000

 k-point    78 :       0.0526    0.0526    0.0526
  band No.  band energies     occupation 
      1     -31.9370      1.00000
      2     -29.7651      1.00000
      3     -29.7602      1.00000
      4     -22.0064      1.00000
      5     -20.2263      1.00000
      6     -20.2161      1.00000
      7     -19.3564      1.00000
      8     -19.3494      1.00000
      9     -19.1022      1.00000
     10     -17.8329      1.00000
     11     -17.0894      1.00000
     12     -17.0838      1.00000
     13     -16.7707      1.00000
     14     -16.7337      1.00000
     15     -16.7247      1.00000
     16     -15.5406      1.00000
     17     -13.9392      1.00000
     18     -13.7531      1.00000
     19     -13.7106      1.00000
     20     -13.4619      1.00000
     21     -13.4581      1.00000
     22     -13.4051      1.00000
     23     -13.0391      1.00000
     24     -12.2265      1.00000
     25     -11.7138      1.00000
     26     -11.6913      1.00000
     27     -10.1687      1.00000
     28     -10.1251      1.00000
     29     -10.1189      1.00000
     30      -9.9717      1.00000
     31      -9.9667      1.00000
     32      -9.2340      1.00000
     33      -9.2308      1.00000
     34      -8.6547      1.00000
     35      -8.5069      1.00000
     36      -8.4044      1.00000
     37      -8.3819      1.00000
     38      -8.1318      1.00000
     39      -8.1109      1.00000
     40      -7.8934      1.00000
     41      -7.8354      1.00000
     42      -7.8217      1.00000
     43      -7.4163      1.00000
     44      -6.0110      1.00000
     45      -5.8021      1.00000
     46      -5.7885      1.00000
     47      -4.8623      1.00000
     48      -4.1968      1.00000
     49      -4.1725      1.00000
     50      -3.3794      0.00000
     51      -3.3455      0.00000
     52      -1.0425      0.00000
     53      -1.0100      0.00000
     54      -0.9525      0.00000
     55      -0.5671      0.00000
     56       0.2334      0.00000
     57       0.6702      0.00000
     58       1.1533      0.00000
     59       1.3977      0.00000
     60       1.6418      0.00000
     61       1.8174      0.00000

 k-point    79 :       0.0263    0.0263    0.0263
  band No.  band energies     occupation 
      1     -31.9371      1.00000
      2     -29.7651      1.00000
      3     -29.7603      1.00000
      4     -22.0071      1.00000
      5     -20.2151      1.00000
      6     -20.2115      1.00000
      7     -19.3666      1.00000
      8     -19.3631      1.00000
      9     -19.1203      1.00000
     10     -17.7975      1.00000
     11     -17.0009      1.00000
     12     -16.9991      1.00000
     13     -16.8229      1.00000
     14     -16.8195      1.00000
     15     -16.7692      1.00000
     16     -15.5838      1.00000
     17     -13.8117      1.00000
     18     -13.7420      1.00000
     19     -13.7106      1.00000
     20     -13.5092      1.00000
     21     -13.4618      1.00000
     22     -13.4579      1.00000
     23     -13.0078      1.00000
     24     -12.2283      1.00000
     25     -11.7214      1.00000
     26     -11.7147      1.00000
     27     -10.1709      1.00000
     28     -10.1250      1.00000
     29     -10.1211      1.00000
     30      -9.9638      1.00000
     31      -9.9606      1.00000
     32      -9.2340      1.00000
     33      -9.2308      1.00000
     34      -8.6546      1.00000
     35      -8.4912      1.00000
     36      -8.3395      1.00000
     37      -8.3313      1.00000
     38      -8.1809      1.00000
     39      -8.1754      1.00000
     40      -7.8918      1.00000
     41      -7.8335      1.00000
     42      -7.8271      1.00000
     43      -7.4681      1.00000
     44      -5.9877      1.00000
     45      -5.8097      1.00000
     46      -5.8062      1.00000
     47      -4.8378      1.00000
     48      -4.0742      1.00000
     49      -4.0639      1.00000
     50      -3.4920      0.00000
     51      -3.4783      0.00000
     52      -1.0139      0.00000
     53      -0.9989      0.00000
     54      -0.9820      0.00000
     55      -0.6046      0.00000
     56       0.2199      0.00000
     57       0.6586      0.00000
     58       1.1404      0.00000
     59       1.6744      0.00000
     60       1.8222      0.00000
     61       1.8799      0.00000

 k-point    80 :       0.0000    0.0000    0.0000
  band No.  band energies     occupation 
      1     -31.9371      1.00000
      2     -29.7651      1.00000
      3     -29.7603      1.00000
      4     -22.0074      1.00000
      5     -20.2117      1.00000
      6     -20.2093      1.00000
      7     -19.3702      1.00000
      8     -19.3680      1.00000
      9     -19.1262      1.00000
     10     -17.7852      1.00000
     11     -16.9188      1.00000
     12     -16.9160      1.00000
     13     -16.9066      1.00000
     14     -16.9038      1.00000
     15     -16.7695      1.00000
     16     -15.5986      1.00000
     17     -13.7392      1.00000
     18     -13.7366      1.00000
     19     -13.7106      1.00000
     20     -13.5758      1.00000
     21     -13.4618      1.00000
     22     -13.4580      1.00000
     23     -12.9968      1.00000
     24     -12.2289      1.00000
     25     -11.7255      1.00000
     26     -11.7214      1.00000
     27     -10.1717      1.00000
     28     -10.1250      1.00000
     29     -10.1217      1.00000
     30      -9.9611      1.00000
     31      -9.9585      1.00000
     32      -9.2340      1.00000
     33      -9.2308      1.00000
     34      -8.6546      1.00000
     35      -8.4875      1.00000
     36      -8.2984      1.00000
     37      -8.2968      1.00000
     38      -8.2164      1.00000
     39      -8.2129      1.00000
     40      -7.8914      1.00000
     41      -7.8332      1.00000
     42      -7.8286      1.00000
     43      -7.4859      1.00000
     44      -5.9799      1.00000
     45      -5.8126      1.00000
     46      -5.8119      1.00000
     47      -4.8295      1.00000
     48      -4.0198      1.00000
     49      -4.0144      1.00000
     50      -3.5413      0.00000
     51      -3.5378      0.00000
     52      -1.0047      0.00000
     53      -0.9969      0.00000
     54      -0.9896      0.00000
     55      -0.6171      0.00000
     56       0.2154      0.00000
     57       0.6548      0.00000
     58       1.1360      0.00000
     59       1.6877      0.00000
     60       1.8314      0.00000
     61       1.9334      0.00000

 k-point    81 :       0.0000    0.0000    0.0000
  band No.  band energies     occupation 
      1     -31.9371      1.00000
      2     -29.7651      1.00000
      3     -29.7603      1.00000
      4     -22.0074      1.00000
      5     -20.2117      1.00000
      6     -20.2093      1.00000
      7     -19.3702      1.00000
      8     -19.3680      1.00000
      9     -19.1262      1.00000
     10     -17.7852      1.00000
     11     -16.9188      1.00000
     12     -16.9160      1.00000
     13     -16.9066      1.00000
     14     -16.9038      1.00000
     15     -16.7695      1.00000
     16     -15.5986      1.00000
     17     -13.7392      1.00000
     18     -13.7366      1.00000
     19     -13.7106      1.00000
     20     -13.5758      1.00000
     21     -13.4618      1.00000
     22     -13.4580      1.00000
     23     -12.9968      1.00000
     24     -12.2289      1.00000
     25     -11.7255      1.00000
     26     -11.7214      1.00000
     27     -10.1717      1.00000
     28     -10.1250      1.00000
     29     -10.1217      1.00000
     30      -9.9611      1.00000
     31      -9.9585      1.00000
     32      -9.2340      1.00000
     33      -9.2308      1.00000
     34      -8.6546      1.00000
     35      -8.4875      1.00000
     36      -8.2984      1.00000
     37      -8.2968      1.00000
     38      -8.2164      1.00000
     39      -8.2129      1.00000
     40      -7.8914      1.00000
     41      -7.8332      1.00000
     42      -7.8286      1.00000
     43      -7.4859      1.00000
     44      -5.9799      1.00000
     45      -5.8126      1.00000
     46      -5.8119      1.00000
     47      -4.8295      1.00000
     48      -4.0198      1.00000
     49      -4.0144      1.00000
     50      -3.5413      0.00000
     51      -3.5378      0.00000
     52      -1.0047      0.00000
     53      -0.9969      0.00000
     54      -0.9896      0.00000
     55      -0.6171      0.00000
     56       0.2154      0.00000
     57       0.6548      0.00000
     58       1.1360      0.00000
     59       1.6874      0.00000
     60       1.8289      0.00000
     61       1.8628      0.00000

 k-point    82 :       0.0000    0.0263    0.0263
  band No.  band energies     occupation 
      1     -31.9370      1.00000
      2     -29.7651      1.00000
      3     -29.7603      1.00000
      4     -22.0073      1.00000
      5     -20.2123      1.00000
      6     -20.2106      1.00000
      7     -19.3687      1.00000
      8     -19.3666      1.00000
      9     -19.1242      1.00000
     10     -17.7893      1.00000
     11     -16.9658      1.00000
     12     -16.9598      1.00000
     13     -16.8621      1.00000
     14     -16.8565      1.00000
     15     -16.7695      1.00000
     16     -15.5937      1.00000
     17     -13.7686      1.00000
     18     -13.7383      1.00000
     19     -13.7106      1.00000
     20     -13.5485      1.00000
     21     -13.4618      1.00000
     22     -13.4580      1.00000
     23     -13.0005      1.00000
     24     -12.2287      1.00000
     25     -11.7227      1.00000
     26     -11.7205      1.00000
     27     -10.1714      1.00000
     28     -10.1249      1.00000
     29     -10.1217      1.00000
     30      -9.9619      1.00000
     31      -9.9592      1.00000
     32      -9.2340      1.00000
     33      -9.2308      1.00000
     34      -8.6546      1.00000
     35      -8.4881      1.00000
     36      -8.3171      1.00000
     37      -8.3110      1.00000
     38      -8.2002      1.00000
     39      -8.1978      1.00000
     40      -7.8915      1.00000
     41      -7.8328      1.00000
     42      -7.8285      1.00000
     43      -7.4800      1.00000
     44      -5.9825      1.00000
     45      -5.8117      1.00000
     46      -5.8099      1.00000
     47      -4.8323      1.00000
     48      -4.0402      1.00000
     49      -4.0312      1.00000
     50      -3.5226      0.00000
     51      -3.5178      0.00000
     52      -1.0077      0.00000
     53      -0.9950      0.00000
     54      -0.9898      0.00000
     55      -0.6129      0.00000
     56       0.2170      0.00000
     57       0.6559      0.00000
     58       1.1380      0.00000
     59       1.6816      0.00000
     60       1.8203      0.00000
     61       1.8434      0.00000

 k-point    83 :       0.0000    0.0526    0.0526
  band No.  band energies     occupation 
      1     -31.9371      1.00000
      2     -29.7651      1.00000
      3     -29.7602      1.00000
      4     -22.0071      1.00000
      5     -20.2152      1.00000
      6     -20.2132      1.00000
      7     -19.3648      1.00000
      8     -19.3621      1.00000
      9     -19.1184      1.00000
     10     -17.8016      1.00000
     11     -17.0229      1.00000
     12     -17.0027      1.00000
     13     -16.8175      1.00000
     14     -16.7984      1.00000
     15     -16.7689      1.00000
     16     -15.5789      1.00000
     17     -13.8309      1.00000
     18     -13.7421      1.00000
     19     -13.7107      1.00000
     20     -13.4938      1.00000
     21     -13.4618      1.00000
     22     -13.4579      1.00000
     23     -13.0115      1.00000
     24     -12.2281      1.00000
     25     -11.7185      1.00000
     26     -11.7140      1.00000
     27     -10.1705      1.00000
     28     -10.1247      1.00000
     29     -10.1215      1.00000
     30      -9.9645      1.00000
     31      -9.9614      1.00000
     32      -9.2340      1.00000
     33      -9.2308      1.00000
     34      -8.6547      1.00000
     35      -8.4900      1.00000
     36      -8.3548      1.00000
     37      -8.3388      1.00000
     38      -8.1701      1.00000
     39      -8.1665      1.00000
     40      -7.8920      1.00000
     41      -7.8321      1.00000
     42      -7.8279      1.00000
     43      -7.4625      1.00000
     44      -5.9904      1.00000
     45      -5.8091      1.00000
     46      -5.8040      1.00000
     47      -4.8406      1.00000
     48      -4.0946      1.00000
     49      -4.0738      1.00000
     50      -3.4784      0.00000
     51      -3.4602      0.00000
     52      -1.0182      0.00000
     53      -0.9940      0.00000
     54      -0.9838      0.00000
     55      -0.6004      0.00000
     56       0.2216      0.00000
     57       0.6592      0.00000
     58       1.1441      0.00000
     59       1.6674      0.00000
     60       1.8161      0.00000
     61       1.8315      0.00000

 k-point    84 :       0.0000    0.0789    0.0789
  band No.  band energies     occupation 
      1     -31.9370      1.00000
      2     -29.7651      1.00000
      3     -29.7602      1.00000
      4     -22.0066      1.00000
      5     -20.2216      1.00000
      6     -20.2157      1.00000
      7     -19.3595      1.00000
      8     -19.3539      1.00000
      9     -19.1084      1.00000
     10     -17.8215      1.00000
     11     -17.0836      1.00000
     12     -17.0400      1.00000
     13     -16.7783      1.00000
     14     -16.7697      1.00000
     15     -16.7336      1.00000
     16     -15.5548      1.00000
     17     -13.9040      1.00000
     18     -13.7486      1.00000
     19     -13.7107      1.00000
     20     -13.4619      1.00000
     21     -13.4581      1.00000
     22     -13.4330      1.00000
     23     -13.0291      1.00000
     24     -12.2271      1.00000
     25     -11.7145      1.00000
     26     -11.7007      1.00000
     27     -10.1690      1.00000
     28     -10.1243      1.00000
     29     -10.1209      1.00000
     30      -9.9687      1.00000
     31      -9.9649      1.00000
     32      -9.2340      1.00000
     33      -9.2308      1.00000
     34      -8.6547      1.00000
     35      -8.4945      1.00000
     36      -8.3969      1.00000
     37      -8.3687      1.00000
     38      -8.1422      1.00000
     39      -8.1274      1.00000
     40      -7.8930      1.00000
     41      -7.8323      1.00000
     42      -7.8256      1.00000
     43      -7.4339      1.00000
     44      -6.0034      1.00000
     45      -5.8048      1.00000
     46      -5.7941      1.00000
     47      -4.8543      1.00000
     48      -4.1706      1.00000
     49      -4.1294      1.00000
     50      -3.4201      0.00000
     51      -3.3786      0.00000
     52      -1.0369      0.00000
     53      -0.9944      0.00000
     54      -0.9703      0.00000
     55      -0.5796      0.00000
     56       0.2292      0.00000
     57       0.6648      0.00000
     58       1.1540      0.00000
     59       1.6448      0.00000
     60       1.8029      0.00000
     61       1.8239      0.00000

 k-point    85 :       0.0000    0.1053    0.1053
  band No.  band energies     occupation 
      1     -31.9370      1.00000
      2     -29.7651      1.00000
      3     -29.7602      1.00000
      4     -22.0061      1.00000
      5     -20.2302      1.00000
      6     -20.2189      1.00000
      7     -19.3532      1.00000
      8     -19.3423      1.00000
      9     -19.0942      1.00000
     10     -17.8483      1.00000
     11     -17.1470      1.00000
     12     -17.0717      1.00000
     13     -16.7703      1.00000
     14     -16.7422      1.00000
     15     -16.6668      1.00000
     16     -15.5218      1.00000
     17     -13.9819      1.00000
     18     -13.7580      1.00000
     19     -13.7107      1.00000
     20     -13.4619      1.00000
     21     -13.4581      1.00000
     22     -13.3728      1.00000
     23     -13.0524      1.00000
     24     -12.2257      1.00000
     25     -11.7091      1.00000
     26     -11.6830      1.00000
     27     -10.1671      1.00000
     28     -10.1241      1.00000
     29     -10.1199      1.00000
     30      -9.9746      1.00000
     31      -9.9696      1.00000
     32      -9.2340      1.00000
     33      -9.2308      1.00000
     34      -8.6549      1.00000
     35      -8.5050      1.00000
     36      -8.4364      1.00000
     37      -8.3973      1.00000
     38      -8.1179      1.00000
     39      -8.0856      1.00000
     40      -7.8944      1.00000
     41      -7.8332      1.00000
     42      -7.8216      1.00000
     43      -7.3949      1.00000
     44      -6.0215      1.00000
     45      -5.7986      1.00000
     46      -5.7807      1.00000
     47      -4.8731      1.00000
     48      -4.2593      1.00000
     49      -4.1895      1.00000
     50      -3.3564      0.00000
     51      -3.2822      0.00000
     52      -1.0630      0.00000
     53      -0.9945      0.00000
     54      -0.9516      0.00000
     55      -0.5507      0.00000
     56       0.2399      0.00000
     57       0.6725      0.00000
     58       1.1675      0.00000
     59       1.5785      0.00000
     60       1.6331      0.00000
     61       1.8037      0.00000

 k-point    86 :       0.0000    0.1316    0.1316
  band No.  band energies     occupation 
      1     -31.9370      1.00000
      2     -29.7651      1.00000
      3     -29.7602      1.00000
      4     -22.0054      1.00000
      5     -20.2407      1.00000
      6     -20.2228      1.00000
      7     -19.3464      1.00000
      8     -19.3276      1.00000
      9     -19.0755      1.00000
     10     -17.8811      1.00000
     11     -17.2127      1.00000
     12     -17.0982      1.00000
     13     -16.7701      1.00000
     14     -16.7118      1.00000
     15     -16.5963      1.00000
     16     -15.4807      1.00000
     17     -14.0627      1.00000
     18     -13.7707      1.00000
     19     -13.7107      1.00000
     20     -13.4619      1.00000
     21     -13.4581      1.00000
     22     -13.3146      1.00000
     23     -13.0802      1.00000
     24     -12.2240      1.00000
     25     -11.7022      1.00000
     26     -11.6618      1.00000
     27     -10.1649      1.00000
     28     -10.1241      1.00000
     29     -10.1182      1.00000
     30      -9.9819      1.00000
     31      -9.9753      1.00000
     32      -9.2340      1.00000
     33      -9.2308      1.00000
     34      -8.6551      1.00000
     35      -8.5291      1.00000
     36      -8.4650      1.00000
     37      -8.4227      1.00000
     38      -8.0976      1.00000
     39      -8.0420      1.00000
     40      -7.8964      1.00000
     41      -7.8344      1.00000
     42      -7.8164      1.00000
     43      -7.3466      1.00000
     44      -6.0443      1.00000
     45      -5.7907      1.00000
     46      -5.7641      1.00000
     47      -4.8966      1.00000
     48      -4.3556      1.00000
     49      -4.2492      1.00000
     50      -3.2921      0.00000
     51      -3.1760      0.00000
     52      -1.0953      0.00000
     53      -0.9946      0.00000
     54      -0.9283      0.00000
     55      -0.5139      0.00000
     56       0.2536      0.00000
     57       0.6825      0.00000
     58       1.1843      0.00000
     59       1.3270      0.00000
     60       1.5894      0.00000
     61       1.7842      0.00000

 k-point    87 :       0.0000    0.1579    0.1579
  band No.  band energies     occupation 
      1     -31.9370      1.00000
      2     -29.7651      1.00000
      3     -29.7602      1.00000
      4     -22.0046      1.00000
      5     -20.2525      1.00000
      6     -20.2272      1.00000
      7     -19.3396      1.00000
      8     -19.3102      1.00000
      9     -19.0522      1.00000
     10     -17.9187      1.00000
     11     -17.2799      1.00000
     12     -17.1202      1.00000
     13     -16.7700      1.00000
     14     -16.6856      1.00000
     15     -16.5229      1.00000
     16     -15.4322      1.00000
     17     -14.1456      1.00000
     18     -13.7871      1.00000
     19     -13.7107      1.00000
     20     -13.4619      1.00000
     21     -13.4581      1.00000
     22     -13.2594      1.00000
     23     -13.1112      1.00000
     24     -12.2220      1.00000
     25     -11.6941      1.00000
     26     -11.6379      1.00000
     27     -10.1626      1.00000
     28     -10.1242      1.00000
     29     -10.1158      1.00000
     30      -9.9906      1.00000
     31      -9.9819      1.00000
     32      -9.2340      1.00000
     33      -9.2308      1.00000
     34      -8.6553      1.00000
     35      -8.5669      1.00000
     36      -8.4835      1.00000
     37      -8.4425      1.00000
     38      -8.0810      1.00000
     39      -7.9972      1.00000
     40      -7.8990      1.00000
     41      -7.8356      1.00000
     42      -7.8104      1.00000
     43      -7.2902      1.00000
     44      -6.0715      1.00000
     45      -5.7808      1.00000
     46      -5.7447      1.00000
     47      -4.9245      1.00000
     48      -4.4566      1.00000
     49      -4.3063      1.00000
     50      -3.2297      0.00000
     51      -3.0625      0.00000
     52      -1.1327      0.00000
     53      -0.9945      0.00000
     54      -0.9012      0.00000
     55      -0.4697      0.00000
     56       0.2703      0.00000
     57       0.6946      0.00000
     58       0.8700      0.00000
     59       1.2038      0.00000
     60       1.5413      0.00000
     61       1.7567      0.00000

 k-point    88 :       0.0000    0.1842    0.1842
  band No.  band energies     occupation 
      1     -31.9370      1.00000
      2     -29.7651      1.00000
      3     -29.7603      1.00000
      4     -22.0037      1.00000
      5     -20.2651      1.00000
      6     -20.2319      1.00000
      7     -19.3332      1.00000
      8     -19.2902      1.00000
      9     -19.0246      1.00000
     10     -17.9601      1.00000
     11     -17.3483      1.00000
     12     -17.1382      1.00000
     13     -16.7700      1.00000
     14     -16.6633      1.00000
     15     -16.4471      1.00000
     16     -15.3774      1.00000
     17     -14.2299      1.00000
     18     -13.8078      1.00000
     19     -13.7107      1.00000
     20     -13.4619      1.00000
     21     -13.4582      1.00000
     22     -13.2075      1.00000
     23     -13.1439      1.00000
     24     -12.2197      1.00000
     25     -11.6849      1.00000
     26     -11.6123      1.00000
     27     -10.1603      1.00000
     28     -10.1245      1.00000
     29     -10.1127      1.00000
     30     -10.0003      1.00000
     31      -9.9891      1.00000
     32      -9.2341      1.00000
     33      -9.2308      1.00000
     34      -8.6559      1.00000
     35      -8.6098      1.00000
     36      -8.5015      1.00000
     37      -8.4548      1.00000
     38      -8.0678      1.00000
     39      -7.9516      1.00000
     40      -7.9021      1.00000
     41      -7.8368      1.00000
     42      -7.8036      1.00000
     43      -7.2270      1.00000
     44      -6.1028      1.00000
     45      -5.7690      1.00000
     46      -5.7229      1.00000
     47      -4.9561      1.00000
     48      -4.5604      1.00000
     49      -4.3594      1.00000
     50      -3.1708      0.00000
     51      -2.9433      0.00000
     52      -1.1739      0.00000
     53      -0.9944      0.00000
     54      -0.8711      0.00000
     55      -0.4183      0.00000
     56       0.2899      0.00000
     57       0.6848      0.00000
     58       0.7090      0.00000
     59       1.2243      0.00000
     60       1.4997      0.00000
     61       1.7301      0.00000

 k-point    89 :       0.0000    0.2105    0.2105
  band No.  band energies     occupation 
      1     -31.9370      1.00000
      2     -29.7651      1.00000
      3     -29.7603      1.00000
      4     -22.0027      1.00000
      5     -20.2783      1.00000
      6     -20.2369      1.00000
      7     -19.3275      1.00000
      8     -19.2680      1.00000
      9     -18.9928      1.00000
     10     -18.0041      1.00000
     11     -17.4171      1.00000
     12     -17.1528      1.00000
     13     -16.7700      1.00000
     14     -16.6444      1.00000
     15     -16.3693      1.00000
     16     -15.3170      1.00000
     17     -14.3154      1.00000
     18     -13.8333      1.00000
     19     -13.7107      1.00000
     20     -13.4619      1.00000
     21     -13.4582      1.00000
     22     -13.1770      1.00000
     23     -13.1593      1.00000
     24     -12.2173      1.00000
     25     -11.6747      1.00000
     26     -11.5858      1.00000
     27     -10.1582      1.00000
     28     -10.1249      1.00000
     29     -10.1090      1.00000
     30     -10.0107      1.00000
     31      -9.9968      1.00000
     32      -9.2341      1.00000
     33      -9.2308      1.00000
     34      -8.6606      1.00000
     35      -8.6492      1.00000
     36      -8.5210      1.00000
     37      -8.4614      1.00000
     38      -8.0572      1.00000
     39      -7.9096      1.00000
     40      -7.9018      1.00000
     41      -7.8377      1.00000
     42      -7.7962      1.00000
     43      -7.1582      1.00000
     44      -6.1375      1.00000
     45      -5.7552      1.00000
     46      -5.6994      1.00000
     47      -4.9911      1.00000
     48      -4.6660      1.00000
     49      -4.4079      1.00000
     50      -3.1162      0.00000
     51      -2.8194      0.00000
     52      -1.2179      0.00000
     53      -0.9943      0.00000
     54      -0.8387      0.00000
     55      -0.3605      0.00000
     56       0.3123      0.00000
     57       0.5053      0.00000
     58       0.7254      0.00000
     59       1.2431      0.00000
     60       1.4584      0.00000
     61       1.7064      0.00000

 k-point    90 :       0.0000    0.2368    0.2368
  band No.  band energies     occupation 
      1     -31.9370      1.00000
      2     -29.7651      1.00000
      3     -29.7603      1.00000
      4     -22.0017      1.00000
      5     -20.2915      1.00000
      6     -20.2421      1.00000
      7     -19.3225      1.00000
      8     -19.2439      1.00000
      9     -18.9574      1.00000
     10     -18.0497      1.00000
     11     -17.4859      1.00000
     12     -17.1647      1.00000
     13     -16.7699      1.00000
     14     -16.6287      1.00000
     15     -16.2900      1.00000
     16     -15.2520      1.00000
     17     -14.4016      1.00000
     18     -13.8640      1.00000
     19     -13.7107      1.00000
     20     -13.4619      1.00000
     21     -13.4582      1.00000
     22     -13.2092      1.00000
     23     -13.1151      1.00000
     24     -12.2148      1.00000
     25     -11.6637      1.00000
     26     -11.5592      1.00000
     27     -10.1564      1.00000
     28     -10.1254      1.00000
     29     -10.1048      1.00000
     30     -10.0217      1.00000
     31     -10.0046      1.00000
     32      -9.2342      1.00000
     33      -9.2308      1.00000
     34      -8.6976      1.00000
     35      -8.6551      1.00000
     36      -8.5406      1.00000
     37      -8.4650      1.00000
     38      -8.0489      1.00000
     39      -7.9107      1.00000
     40      -7.8595      1.00000
     41      -7.8376      1.00000
     42      -7.7885      1.00000
     43      -7.0849      1.00000
     44      -6.1751      1.00000
     45      -5.7393      1.00000
     46      -5.6747      1.00000
     47      -5.0288      1.00000
     48      -4.7721      1.00000
     49      -4.4515      1.00000
     50      -3.0664      0.00000
     51      -2.6915      0.00000
     52      -1.2632      0.00000
     53      -0.9941      0.00000
     54      -0.8050      0.00000
     55      -0.2970      0.00000
     56       0.3372      0.00000
     57       0.3563      0.00000
     58       0.7437      0.00000
     59       1.2533      0.00000
     60       1.4266      0.00000
     61       1.6823      0.00000

 k-point    91 :       0.0000    0.2632    0.2632
  band No.  band energies     occupation 
      1     -31.9370      1.00000
      2     -29.7651      1.00000
      3     -29.7603      1.00000
      4     -22.0007      1.00000
      5     -20.3044      1.00000
      6     -20.2471      1.00000
      7     -19.3183      1.00000
      8     -19.2185      1.00000
      9     -18.9190      1.00000
     10     -18.0960      1.00000
     11     -17.5542      1.00000
     12     -17.1743      1.00000
     13     -16.7699      1.00000
     14     -16.6155      1.00000
     15     -16.2095      1.00000
     16     -15.1832      1.00000
     17     -14.4883      1.00000
     18     -13.9005      1.00000
     19     -13.7107      1.00000
     20     -13.4619      1.00000
     21     -13.4583      1.00000
     22     -13.2393      1.00000
     23     -13.0749      1.00000
     24     -12.2123      1.00000
     25     -11.6523      1.00000
     26     -11.5331      1.00000
     27     -10.1549      1.00000
     28     -10.1260      1.00000
     29     -10.1004      1.00000
     30     -10.0327      1.00000
     31     -10.0123      1.00000
     32      -9.2342      1.00000
     33      -9.2308      1.00000
     34      -8.7376      1.00000
     35      -8.6560      1.00000
     36      -8.5590      1.00000
     37      -8.4672      1.00000
     38      -8.0423      1.00000
     39      -7.9151      1.00000
     40      -7.8409      1.00000
     41      -7.8116      1.00000
     42      -7.7803      1.00000
     43      -7.0084      1.00000
     44      -6.2148      1.00000
     45      -5.7213      1.00000
     46      -5.6495      1.00000
     47      -5.0687      1.00000
     48      -4.8781      1.00000
     49      -4.4902      1.00000
     50      -3.0216      0.00000
     51      -2.5601      0.00000
     52      -1.3087      0.00000
     53      -0.9939      0.00000
     54      -0.7709      0.00000
     55      -0.2286      0.00000
     56       0.1998      0.00000
     57       0.3657      0.00000
     58       0.7636      0.00000
     59       1.2452      0.00000
     60       1.4141      0.00000
     61       1.6587      0.00000

 k-point    92 :       0.0000    0.2895    0.2895
  band No.  band energies     occupation 
      1     -31.9370      1.00000
      2     -29.7652      1.00000
      3     -29.7603      1.00000
      4     -21.9997      1.00000
      5     -20.3167      1.00000
      6     -20.2520      1.00000
      7     -19.3148      1.00000
      8     -19.1921      1.00000
      9     -18.8782      1.00000
     10     -18.1419      1.00000
     11     -17.6213      1.00000
     12     -17.1820      1.00000
     13     -16.7699      1.00000
     14     -16.6046      1.00000
     15     -16.1282      1.00000
     16     -15.1114      1.00000
     17     -14.5749      1.00000
     18     -13.9427      1.00000
     19     -13.7107      1.00000
     20     -13.4619      1.00000
     21     -13.4583      1.00000
     22     -13.2666      1.00000
     23     -13.0389      1.00000
     24     -12.2097      1.00000
     25     -11.6407      1.00000
     26     -11.5083      1.00000
     27     -10.1537      1.00000
     28     -10.1269      1.00000
     29     -10.0961      1.00000
     30     -10.0434      1.00000
     31     -10.0196      1.00000
     32      -9.2343      1.00000
     33      -9.2308      1.00000
     34      -8.7750      1.00000
     35      -8.6568      1.00000
     36      -8.5757      1.00000
     37      -8.4687      1.00000
     38      -8.0370      1.00000
     39      -7.9196      1.00000
     40      -7.8409      1.00000
     41      -7.7765      1.00000
     42      -7.7632      1.00000
     43      -6.9295      1.00000
     44      -6.2555      1.00000
     45      -5.7012      1.00000
     46      -5.6246      1.00000
     47      -5.1103      1.00000
     48      -4.9828      1.00000
     49      -4.5240      1.00000
     50      -2.9819      0.00000
     51      -2.4258      0.00000
     52      -1.3532      0.00000
     53      -0.9938      0.00000
     54      -0.7372      0.00000
     55      -0.1565      0.00000
     56       0.0460      0.00000
     57       0.3963      0.00000
     58       0.7846      0.00000
     59       1.2157      0.00000
     60       1.4209      0.00000
     61       1.6344      0.00000

 k-point    93 :       0.0000    0.3158    0.3158
  band No.  band energies     occupation 
      1     -31.9370      1.00000
      2     -29.7652      1.00000
      3     -29.7603      1.00000
      4     -21.9987      1.00000
      5     -20.3282      1.00000
      6     -20.2565      1.00000
      7     -19.3120      1.00000
      8     -19.1652      1.00000
      9     -18.8360      1.00000
     10     -18.1865      1.00000
     11     -17.6864      1.00000
     12     -17.1882      1.00000
     13     -16.7699      1.00000
     14     -16.5957      1.00000
     15     -16.0468      1.00000
     16     -15.0373      1.00000
     17     -14.6611      1.00000
     18     -13.9906      1.00000
     19     -13.7106      1.00000
     20     -13.4619      1.00000
     21     -13.4584      1.00000
     22     -13.2905      1.00000
     23     -13.0072      1.00000
     24     -12.2073      1.00000
     25     -11.6293      1.00000
     26     -11.4851      1.00000
     27     -10.1528      1.00000
     28     -10.1279      1.00000
     29     -10.0923      1.00000
     30     -10.0534      1.00000
     31     -10.0259      1.00000
     32      -9.2343      1.00000
     33      -9.2309      1.00000
     34      -8.8093      1.00000
     35      -8.6578      1.00000
     36      -8.5904      1.00000
     37      -8.4698      1.00000
     38      -8.0328      1.00000
     39      -7.9240      1.00000
     40      -7.8413      1.00000
     41      -7.7672      1.00000
     42      -7.7217      1.00000
     43      -6.8495      1.00000
     44      -6.2964      1.00000
     45      -5.6788      1.00000
     46      -5.6004      1.00000
     47      -5.1531      1.00000
     48      -5.0853      1.00000
     49      -4.5531      1.00000
     50      -2.9472      0.00000
     51      -2.2889      0.00000
     52      -1.3955      0.00000
     53      -0.9936      0.00000
     54      -0.7050      0.00000
     55      -0.1121      0.00000
     56      -0.0820      0.00000
     57       0.4294      0.00000
     58       0.8054      0.00000
     59       1.1754      0.00000
     60       1.4341      0.00000
     61       1.6145      0.00000

 k-point    94 :       0.0000    0.3421    0.3421
  band No.  band energies     occupation 
      1     -31.9370      1.00000
      2     -29.7651      1.00000
      3     -29.7603      1.00000
      4     -21.9978      1.00000
      5     -20.3386      1.00000
      6     -20.2607      1.00000
      7     -19.3097      1.00000
      8     -19.1387      1.00000
      9     -18.7932      1.00000
     10     -18.2289      1.00000
     11     -17.7488      1.00000
     12     -17.1932      1.00000
     13     -16.7699      1.00000
     14     -16.5884      1.00000
     15     -15.9658      1.00000
     16     -14.9617      1.00000
     17     -14.7462      1.00000
     18     -14.0438      1.00000
     19     -13.7106      1.00000
     20     -13.4619      1.00000
     21     -13.4584      1.00000
     22     -13.3108      1.00000
     23     -12.9797      1.00000
     24     -12.2050      1.00000
     25     -11.6183      1.00000
     26     -11.4641      1.00000
     27     -10.1522      1.00000
     28     -10.1291      1.00000
     29     -10.0897      1.00000
     30     -10.0621      1.00000
     31     -10.0309      1.00000
     32      -9.2344      1.00000
     33      -9.2309      1.00000
     34      -8.8400      1.00000
     35      -8.6590      1.00000
     36      -8.6028      1.00000
     37      -8.4705      1.00000
     38      -8.0296      1.00000
     39      -7.9283      1.00000
     40      -7.8416      1.00000
     41      -7.7602      1.00000
     42      -7.6807      1.00000
     43      -6.7698      1.00000
     44      -6.3361      1.00000
     45      -5.6543      1.00000
     46      -5.5779      1.00000
     47      -5.1974      1.00000
     48      -5.1835      1.00000
     49      -4.5777      1.00000
     50      -2.9176      0.00000
     51      -2.1500      0.00000
     52      -1.4346      0.00000
     53      -0.9934      0.00000
     54      -0.6750      0.00000
     55      -0.2678      0.00000
     56      -0.0071      0.00000
     57       0.4649      0.00000
     58       0.8247      0.00000
     59       1.1334      0.00000
     60       1.4371      0.00000
     61       1.6098      0.00000

 k-point    95 :       0.0000    0.3684    0.3684
  band No.  band energies     occupation 
      1     -31.9370      1.00000
      2     -29.7652      1.00000
      3     -29.7603      1.00000
      4     -21.9969      1.00000
      5     -20.3477      1.00000
      6     -20.2644      1.00000
      7     -19.3079      1.00000
      8     -19.1133      1.00000
      9     -18.7511      1.00000
     10     -18.2681      1.00000
     11     -17.8073      1.00000
     12     -17.1971      1.00000
     13     -16.7699      1.00000
     14     -16.5826      1.00000
     15     -15.8863      1.00000
     16     -14.8854      1.00000
     17     -14.8291      1.00000
     18     -14.1016      1.00000
     19     -13.7106      1.00000
     20     -13.4619      1.00000
     21     -13.4585      1.00000
     22     -13.3274      1.00000
     23     -12.9565      1.00000
     24     -12.2029      1.00000
     25     -11.6083      1.00000
     26     -11.4457      1.00000
     27     -10.1518      1.00000
     28     -10.1306      1.00000
     29     -10.0889      1.00000
     30     -10.0690      1.00000
     31     -10.0344      1.00000
     32      -9.2345      1.00000
     33      -9.2309      1.00000
     34      -8.8666      1.00000
     35      -8.6605      1.00000
     36      -8.6129      1.00000
     37      -8.4711      1.00000
     38      -8.0270      1.00000
     39      -7.9321      1.00000
     40      -7.8419      1.00000
     41      -7.7541      1.00000
     42      -7.6427      1.00000
     43      -6.6921      1.00000
     44      -6.3735      1.00000
     45      -5.6276      1.00000
     46      -5.5575      1.00000
     47      -5.2794      1.00000
     48      -5.2389      1.00000
     49      -4.5981      1.00000
     50      -2.8929      0.00000
     51      -2.0097      0.00000
     52      -1.4695      0.00000
     53      -0.9933      0.00000
     54      -0.6480      0.00000
     55      -0.4224      0.00000
     56       0.0663      0.00000
     57       0.5026      0.00000
     58       0.8383      0.00000
     59       1.0965      0.00000
     60       1.4208      0.00000
     61       1.6223      0.00000

 k-point    96 :       0.0000    0.3947    0.3947
  band No.  band energies     occupation 
      1     -31.9370      1.00000
      2     -29.7652      1.00000
      3     -29.7603      1.00000
      4     -21.9962      1.00000
      5     -20.3553      1.00000
      6     -20.2675      1.00000
      7     -19.3064      1.00000
      8     -19.0900      1.00000
      9     -18.7114      1.00000
     10     -18.3028      1.00000
     11     -17.8604      1.00000
     12     -17.2001      1.00000
     13     -16.7699      1.00000
     14     -16.5781      1.00000
     15     -15.8097      1.00000
     16     -14.9085      1.00000
     17     -14.8093      1.00000
     18     -14.1629      1.00000
     19     -13.7106      1.00000
     20     -13.4620      1.00000
     21     -13.4585      1.00000
     22     -13.3406      1.00000
     23     -12.9376      1.00000
     24     -12.2012      1.00000
     25     -11.5995      1.00000
     26     -11.4302      1.00000
     27     -10.1516      1.00000
     28     -10.1322      1.00000
     29     -10.0901      1.00000
     30     -10.0738      1.00000
     31     -10.0361      1.00000
     32      -9.2345      1.00000
     33      -9.2309      1.00000
     34      -8.8888      1.00000
     35      -8.6622      1.00000
     36      -8.6207      1.00000
     37      -8.4716      1.00000
     38      -8.0250      1.00000
     39      -7.9354      1.00000
     40      -7.8421      1.00000
     41      -7.7489      1.00000
     42      -7.6091      1.00000
     43      -6.6186      1.00000
     44      -6.4071      1.00000
     45      -5.5991      1.00000
     46      -5.5399      1.00000
     47      -5.3660      1.00000
     48      -5.2819      1.00000
     49      -4.6144      1.00000
     50      -2.8728      0.00000
     51      -1.8690      0.00000
     52      -1.4993      0.00000
     53      -0.9932      0.00000
     54      -0.6251      0.00000
     55      -0.5748      0.00000
     56       0.1353      0.00000
     57       0.5425      0.00000
     58       0.8413      0.00000
     59       1.0708      0.00000
     60       1.3905      0.00000
     61       1.6236      0.00000

 k-point    97 :       0.0000    0.4211    0.4211
  band No.  band energies     occupation 
      1     -31.9370      1.00000
      2     -29.7652      1.00000
      3     -29.7603      1.00000
      4     -21.9956      1.00000
      5     -20.3614      1.00000
      6     -20.2700      1.00000
      7     -19.3054      1.00000
      8     -19.0699      1.00000
      9     -18.6760      1.00000
     10     -18.3319      1.00000
     11     -17.9061      1.00000
     12     -17.2023      1.00000
     13     -16.7699      1.00000
     14     -16.5747      1.00000
     15     -15.7387      1.00000
     16     -14.9816      1.00000
     17     -14.7349      1.00000
     18     -14.2260      1.00000
     19     -13.7106      1.00000
     20     -13.4620      1.00000
     21     -13.4586      1.00000
     22     -13.3505      1.00000
     23     -12.9229      1.00000
     24     -12.1997      1.00000
     25     -11.5923      1.00000
     26     -11.4178      1.00000
     27     -10.1516      1.00000
     28     -10.1338      1.00000
     29     -10.0924      1.00000
     30     -10.0768      1.00000
     31     -10.0366      1.00000
     32      -9.2346      1.00000
     33      -9.2309      1.00000
     34      -8.9065      1.00000
     35      -8.6641      1.00000
     36      -8.6263      1.00000
     37      -8.4719      1.00000
     38      -8.0236      1.00000
     39      -7.9381      1.00000
     40      -7.8423      1.00000
     41      -7.7447      1.00000
     42      -7.5811      1.00000
     43      -6.5528      1.00000
     44      -6.4353      1.00000
     45      -5.5689      1.00000
     46      -5.5257      1.00000
     47      -5.4421      1.00000
     48      -5.3236      1.00000
     49      -4.6269      1.00000
     50      -2.8574      0.00000
     51      -1.7298      0.00000
     52      -1.5233      0.00000
     53      -0.9931      0.00000
     54      -0.7237      0.00000
     55      -0.6061      0.00000
     56       0.1968      0.00000
     57       0.5834      0.00000
     58       0.8285      0.00000
     59       1.0618      0.00000
     60       1.3550      0.00000
     61       1.6251      0.00000

 k-point    98 :       0.0000    0.4474    0.4474
  band No.  band energies     occupation 
      1     -31.9370      1.00000
      2     -29.7652      1.00000
      3     -29.7603      1.00000
      4     -21.9952      1.00000
      5     -20.3658      1.00000
      6     -20.2718      1.00000
      7     -19.3047      1.00000
      8     -19.0543      1.00000
      9     -18.6475      1.00000
     10     -18.3540      1.00000
     11     -17.9419      1.00000
     12     -17.2038      1.00000
     13     -16.7699      1.00000
     14     -16.5723      1.00000
     15     -15.6778      1.00000
     16     -15.0441      1.00000
     17     -14.6651      1.00000
     18     -14.2879      1.00000
     19     -13.7106      1.00000
     20     -13.4620      1.00000
     21     -13.4586      1.00000
     22     -13.3574      1.00000
     23     -12.9124      1.00000
     24     -12.1987      1.00000
     25     -11.5869      1.00000
     26     -11.4089      1.00000
     27     -10.1517      1.00000
     28     -10.1351      1.00000
     29     -10.0946      1.00000
     30     -10.0787      1.00000
     31     -10.0363      1.00000
     32      -9.2346      1.00000
     33      -9.2309      1.00000
     34      -8.9193      1.00000
     35      -8.6659      1.00000
     36      -8.6299      1.00000
     37      -8.4721      1.00000
     38      -8.0226      1.00000
     39      -7.9400      1.00000
     40      -7.8424      1.00000
     41      -7.7417      1.00000
     42      -7.5599      1.00000
     43      -6.4992      1.00000
     44      -6.4568      1.00000
     45      -5.5380      1.00000
     46      -5.5164      1.00000
     47      -5.5018      1.00000
     48      -5.3628      1.00000
     49      -4.6357      1.00000
     50      -2.8465      0.00000
     51      -1.5965      0.00000
     52      -1.5409      0.00000
     53      -0.9930      0.00000
     54      -0.8636      0.00000
     55      -0.5924      0.00000
     56       0.2451      0.00000
     57       0.6254      0.00000
     58       0.8014      0.00000
     59       1.0663      0.00000
     60       1.3217      0.00000
     61       1.6126      0.00000

 k-point    99 :       0.0000    0.4737    0.4737
  band No.  band energies     occupation 
      1     -31.9370      1.00000
      2     -29.7652      1.00000
      3     -29.7603      1.00000
      4     -21.9950      1.00000
      5     -20.3685      1.00000
      6     -20.2729      1.00000
      7     -19.3042      1.00000
      8     -19.0443      1.00000
      9     -18.6288      1.00000
     10     -18.3678      1.00000
     11     -17.9650      1.00000
     12     -17.2047      1.00000
     13     -16.7699      1.00000
     14     -16.5710      1.00000
     15     -15.6344      1.00000
     16     -15.0884      1.00000
     17     -14.6073      1.00000
     18     -14.3411      1.00000
     19     -13.7106      1.00000
     20     -13.4620      1.00000
     21     -13.4586      1.00000
     22     -13.3615      1.00000
     23     -12.9061      1.00000
     24     -12.1980      1.00000
     25     -11.5836      1.00000
     26     -11.4034      1.00000
     27     -10.1518      1.00000
     28     -10.1361      1.00000
     29     -10.0961      1.00000
     30     -10.0799      1.00000
     31     -10.0359      1.00000
     32      -9.2347      1.00000
     33      -9.2309      1.00000
     34      -8.9270      1.00000
     35      -8.6671      1.00000
     36      -8.6319      1.00000
     37      -8.4723      1.00000
     38      -8.0220      1.00000
     39      -7.9413      1.00000
     40      -7.8425      1.00000
     41      -7.7398      1.00000
     42      -7.5466      1.00000
     43      -6.4705      1.00000
     44      -6.4633      1.00000
     45      -5.5441      1.00000
     46      -5.5095      1.00000
     47      -5.5078      1.00000
     48      -5.3965      1.00000
     49      -4.6409      1.00000
     50      -2.8400      0.00000
     51      -1.5517      0.00000
     52      -1.4826      0.00000
     53      -0.9930      0.00000
     54      -0.9815      0.00000
     55      -0.5839      0.00000
     56       0.2769      0.00000
     57       0.6662      0.00000
     58       0.7673      0.00000
     59       1.0760      0.00000
     60       1.2971      0.00000
     61       1.6065      0.00000

 k-point   100 :       0.0000    0.5000    0.5000
  band No.  band energies     occupation 
      1     -31.9370      1.00000
      2     -29.7652      1.00000
      3     -29.7603      1.00000
      4     -21.9949      1.00000
      5     -20.3694      1.00000
      6     -20.2732      1.00000
      7     -19.3041      1.00000
      8     -19.0409      1.00000
      9     -18.6222      1.00000
     10     -18.3726      1.00000
     11     -17.9730      1.00000
     12     -17.2050      1.00000
     13     -16.7699      1.00000
     14     -16.5705      1.00000
     15     -15.6183      1.00000
     16     -15.1048      1.00000
     17     -14.5817      1.00000
     18     -14.3652      1.00000
     19     -13.7106      1.00000
     20     -13.4620      1.00000
     21     -13.4586      1.00000
     22     -13.3629      1.00000
     23     -12.9040      1.00000
     24     -12.1978      1.00000
     25     -11.5824      1.00000
     26     -11.4016      1.00000
     27     -10.1518      1.00000
     28     -10.1364      1.00000
     29     -10.0967      1.00000
     30     -10.0803      1.00000
     31     -10.0357      1.00000
     32      -9.2347      1.00000
     33      -9.2309      1.00000
     34      -8.9296      1.00000
     35      -8.6675      1.00000
     36      -8.6326      1.00000
     37      -8.4723      1.00000
     38      -8.0218      1.00000
     39      -7.9417      1.00000
     40      -7.8425      1.00000
     41      -7.7392      1.00000
     42      -7.5421      1.00000
     43      -6.4750      1.00000
     44      -6.4507      1.00000
     45      -5.5580      1.00000
     46      -5.5059      1.00000
     47      -5.4948      1.00000
     48      -5.4128      1.00000
     49      -4.6426      1.00000
     50      -2.8378      0.00000
     51      -1.5553      0.00000
     52      -1.4299      0.00000
     53      -1.0356      0.00000
     54      -0.9929      0.00000
     55      -0.5811      0.00000
     56       0.2882      0.00000
     57       0.6913      0.00000
     58       0.7443      0.00000
     59       1.0808      0.00000
     60       1.2869      0.00000
     61       1.6089      0.00000

 k-point   101 :       0.5000    0.0000    0.5000
  band No.  band energies     occupation 
      1     -31.9370      1.00000
      2     -29.7652      1.00000
      3     -29.7602      1.00000
      4     -21.9948      1.00000
      5     -20.3711      1.00000
      6     -20.2713      1.00000
      7     -19.3066      1.00000
      8     -19.0393      1.00000
      9     -18.6213      1.00000
     10     -18.3708      1.00000
     11     -17.9730      1.00000
     12     -17.2095      1.00000
     13     -16.7702      1.00000
     14     -16.5695      1.00000
     15     -15.6155      1.00000
     16     -15.1042      1.00000
     17     -14.5843      1.00000
     18     -14.3631      1.00000
     19     -13.7107      1.00000
     20     -13.4623      1.00000
     21     -13.4580      1.00000
     22     -13.3643      1.00000
     23     -12.9040      1.00000
     24     -12.1980      1.00000
     25     -11.5854      1.00000
     26     -11.3986      1.00000
     27     -10.1571      1.00000
     28     -10.1368      1.00000
     29     -10.0941      1.00000
     30     -10.0714      1.00000
     31     -10.0400      1.00000
     32      -9.2342      1.00000
     33      -9.2308      1.00000
     34      -8.9422      1.00000
     35      -8.6561      1.00000
     36      -8.6388      1.00000
     37      -8.4538      1.00000
     38      -8.0395      1.00000
     39      -7.9367      1.00000
     40      -7.8515      1.00000
     41      -7.7372      1.00000
     42      -7.5389      1.00000
     43      -6.4722      1.00000
     44      -6.4473      1.00000
     45      -5.5565      1.00000
     46      -5.5065      1.00000
     47      -5.4985      1.00000
     48      -5.4071      1.00000
     49      -4.6494      1.00000
     50      -2.8390      0.00000
     51      -1.5584      0.00000
     52      -1.4290      0.00000
     53      -1.0327      0.00000
     54      -0.9971      0.00000
     55      -0.5737      0.00000
     56       0.2920      0.00000
     57       0.6603      0.00000
     58       0.7794      0.00000
     59       1.0777      0.00000
     60       1.2819      0.00000
     61       1.6282      0.00000

 k-point   102 :       0.4737    0.0000    0.4737
  band No.  band energies     occupation 
      1     -31.9370      1.00000
      2     -29.7652      1.00000
      3     -29.7602      1.00000
      4     -21.9949      1.00000
      5     -20.3702      1.00000
      6     -20.2709      1.00000
      7     -19.3067      1.00000
      8     -19.0427      1.00000
      9     -18.6279      1.00000
     10     -18.3661      1.00000
     11     -17.9650      1.00000
     12     -17.2092      1.00000
     13     -16.7702      1.00000
     14     -16.5700      1.00000
     15     -15.6317      1.00000
     16     -15.0877      1.00000
     17     -14.6095      1.00000
     18     -14.3395      1.00000
     19     -13.7107      1.00000
     20     -13.4623      1.00000
     21     -13.4580      1.00000
     22     -13.3629      1.00000
     23     -12.9061      1.00000
     24     -12.1983      1.00000
     25     -11.5866      1.00000
     26     -11.4004      1.00000
     27     -10.1571      1.00000
     28     -10.1364      1.00000
     29     -10.0934      1.00000
     30     -10.0709      1.00000
     31     -10.0404      1.00000
     32      -9.2342      1.00000
     33      -9.2308      1.00000
     34      -8.9397      1.00000
     35      -8.6560      1.00000
     36      -8.6378      1.00000
     37      -8.4538      1.00000
     38      -8.0397      1.00000
     39      -7.9363      1.00000
     40      -7.8514      1.00000
     41      -7.7378      1.00000
     42      -7.5434      1.00000
     43      -6.4676      1.00000
     44      -6.4600      1.00000
     45      -5.5427      1.00000
     46      -5.5120      1.00000
     47      -5.5082      1.00000
     48      -5.3920      1.00000
     49      -4.6477      1.00000
     50      -2.8412      0.00000
     51      -1.5548      0.00000
     52      -1.4815      0.00000
     53      -0.9972      0.00000
     54      -0.9789      0.00000
     55      -0.5765      0.00000
     56       0.2805      0.00000
     57       0.6455      0.00000
     58       0.7925      0.00000
     59       1.0731      0.00000
     60       1.2905      0.00000
     61       1.6308      0.00000

 k-point   103 :       0.4474    0.0000    0.4474
  band No.  band energies     occupation 
      1     -31.9370      1.00000
      2     -29.7652      1.00000
      3     -29.7602      1.00000
      4     -21.9952      1.00000
      5     -20.3675      1.00000
      6     -20.2698      1.00000
      7     -19.3071      1.00000
      8     -19.0527      1.00000
      9     -18.6467      1.00000
     10     -18.3522      1.00000
     11     -17.9418      1.00000
     12     -17.2083      1.00000
     13     -16.7702      1.00000
     14     -16.5714      1.00000
     15     -15.6752      1.00000
     16     -15.0433      1.00000
     17     -14.6666      1.00000
     18     -14.2870      1.00000
     19     -13.7107      1.00000
     20     -13.4622      1.00000
     21     -13.4580      1.00000
     22     -13.3588      1.00000
     23     -12.9123      1.00000
     24     -12.1989      1.00000
     25     -11.5899      1.00000
     26     -11.4058      1.00000
     27     -10.1572      1.00000
     28     -10.1355      1.00000
     29     -10.0912      1.00000
     30     -10.0695      1.00000
     31     -10.0417      1.00000
     32      -9.2342      1.00000
     33      -9.2308      1.00000
     34      -8.9319      1.00000
     35      -8.6558      1.00000
     36      -8.6348      1.00000
     37      -8.4536      1.00000
     38      -8.0402      1.00000
     39      -7.9352      1.00000
     40      -7.8513      1.00000
     41      -7.7397      1.00000
     42      -7.5566      1.00000
     43      -6.4958      1.00000
     44      -6.4542      1.00000
     45      -5.5393      1.00000
     46      -5.5184      1.00000
     47      -5.4988      1.00000
     48      -5.3596      1.00000
     49      -4.6424      1.00000
     50      -2.8477      0.00000
     51      -1.5951      0.00000
     52      -1.5440      0.00000
     53      -0.9972      0.00000
     54      -0.8614      0.00000
     55      -0.5848      0.00000
     56       0.2484      0.00000
     57       0.6130      0.00000
     58       0.8188      0.00000
     59       1.0641      0.00000
     60       1.3149      0.00000
     61       1.6358      0.00000

 k-point   104 :       0.4211    0.0000    0.4211
  band No.  band energies     occupation 
      1     -31.9370      1.00000
      2     -29.7652      1.00000
      3     -29.7603      1.00000
      4     -21.9956      1.00000
      5     -20.3631      1.00000
      6     -20.2680      1.00000
      7     -19.3078      1.00000
      8     -19.0683      1.00000
      9     -18.6752      1.00000
     10     -18.3302      1.00000
     11     -17.9060      1.00000
     12     -17.2067      1.00000
     13     -16.7702      1.00000
     14     -16.5737      1.00000
     15     -15.7363      1.00000
     16     -14.9807      1.00000
     17     -14.7361      1.00000
     18     -14.2255      1.00000
     19     -13.7107      1.00000
     20     -13.4622      1.00000
     21     -13.4580      1.00000
     22     -13.3518      1.00000
     23     -12.9228      1.00000
     24     -12.1999      1.00000
     25     -11.5953      1.00000
     26     -11.4148      1.00000
     27     -10.1573      1.00000
     28     -10.1342      1.00000
     29     -10.0874      1.00000
     30     -10.0677      1.00000
     31     -10.0431      1.00000
     32      -9.2342      1.00000
     33      -9.2308      1.00000
     34      -8.9192      1.00000
     35      -8.6555      1.00000
     36      -8.6296      1.00000
     37      -8.4534      1.00000
     38      -8.0411      1.00000
     39      -7.9334      1.00000
     40      -7.8511      1.00000
     41      -7.7428      1.00000
     42      -7.5778      1.00000
     43      -6.5494      1.00000
     44      -6.4327      1.00000
     45      -5.5695      1.00000
     46      -5.5270      1.00000
     47      -5.4396      1.00000
     48      -5.3211      1.00000
     49      -4.6336      1.00000
     50      -2.8586      0.00000
     51      -1.7283      0.00000
     52      -1.5264      0.00000
     53      -0.9973      0.00000
     54      -0.7222      0.00000
     55      -0.5980      0.00000
     56       0.1997      0.00000
     57       0.5752      0.00000
     58       0.8416      0.00000
     59       1.0599      0.00000
     60       1.3479      0.00000
     61       1.6443      0.00000

 k-point   105 :       0.3947    0.0000    0.3947
  band No.  band energies     occupation 
      1     -31.9370      1.00000
      2     -29.7652      1.00000
      3     -29.7603      1.00000
      4     -21.9962      1.00000
      5     -20.3570      1.00000
      6     -20.2655      1.00000
      7     -19.3089      1.00000
      8     -19.0884      1.00000
      9     -18.7106      1.00000
     10     -18.3011      1.00000
     11     -17.8602      1.00000
     12     -17.2044      1.00000
     13     -16.7702      1.00000
     14     -16.5771      1.00000
     15     -15.8075      1.00000
     16     -14.9074      1.00000
     17     -14.8102      1.00000
     18     -14.1627      1.00000
     19     -13.7107      1.00000
     20     -13.4622      1.00000
     21     -13.4580      1.00000
     22     -13.3418      1.00000
     23     -12.9374      1.00000
     24     -12.2014      1.00000
     25     -11.6026      1.00000
     26     -11.4271      1.00000
     27     -10.1575      1.00000
     28     -10.1327      1.00000
     29     -10.0820      1.00000
     30     -10.0666      1.00000
     31     -10.0437      1.00000
     32      -9.2342      1.00000
     33      -9.2308      1.00000
     34      -8.9017      1.00000
     35      -8.6553      1.00000
     36      -8.6222      1.00000
     37      -8.4530      1.00000
     38      -8.0423      1.00000
     39      -7.9309      1.00000
     40      -7.8508      1.00000
     41      -7.7470      1.00000
     42      -7.6057      1.00000
     43      -6.6153      1.00000
     44      -6.4046      1.00000
     45      -5.5992      1.00000
     46      -5.5410      1.00000
     47      -5.3636      1.00000
     48      -5.2800      1.00000
     49      -4.6210      1.00000
     50      -2.8740      0.00000
     51      -1.8674      0.00000
     52      -1.5023      0.00000
     53      -0.9974      0.00000
     54      -0.6206      0.00000
     55      -0.5699      0.00000
     56       0.1383      0.00000
     57       0.5361      0.00000
     58       0.8514      0.00000
     59       1.0701      0.00000
     60       1.3829      0.00000
     61       1.6433      0.00000

 k-point   106 :       0.3684    0.0000    0.3684
  band No.  band energies     occupation 
      1     -31.9370      1.00000
      2     -29.7652      1.00000
      3     -29.7603      1.00000
      4     -21.9969      1.00000
      5     -20.3494      1.00000
      6     -20.2624      1.00000
      7     -19.3103      1.00000
      8     -19.1117      1.00000
      9     -18.7504      1.00000
     10     -18.2664      1.00000
     11     -17.8071      1.00000
     12     -17.2014      1.00000
     13     -16.7703      1.00000
     14     -16.5816      1.00000
     15     -15.8841      1.00000
     16     -14.8861      1.00000
     17     -14.8279      1.00000
     18     -14.1018      1.00000
     19     -13.7106      1.00000
     20     -13.4622      1.00000
     21     -13.4580      1.00000
     22     -13.3285      1.00000
     23     -12.9563      1.00000
     24     -12.2031      1.00000
     25     -11.6114      1.00000
     26     -11.4427      1.00000
     27     -10.1577      1.00000
     28     -10.1313      1.00000
     29     -10.0754      1.00000
     30     -10.0672      1.00000
     31     -10.0419      1.00000
     32      -9.2342      1.00000
     33      -9.2308      1.00000
     34      -8.8796      1.00000
     35      -8.6551      1.00000
     36      -8.6127      1.00000
     37      -8.4526      1.00000
     38      -8.0441      1.00000
     39      -7.9279      1.00000
     40      -7.8504      1.00000
     41      -7.7523      1.00000
     42      -7.6393      1.00000
     43      -6.6887      1.00000
     44      -6.3711      1.00000
     45      -5.6276      1.00000
     46      -5.5585      1.00000
     47      -5.2768      1.00000
     48      -5.2375      1.00000
     49      -4.6045      1.00000
     50      -2.8939      0.00000
     51      -2.0081      0.00000
     52      -1.4724      0.00000
     53      -0.9975      0.00000
     54      -0.6417      0.00000
     55      -0.4195      0.00000
     56       0.0689      0.00000
     57       0.4979      0.00000
     58       0.8461      0.00000
     59       1.0962      0.00000
     60       1.4130      0.00000
     61       1.6159      0.00000

 k-point   107 :       0.3421    0.0000    0.3421
  band No.  band energies     occupation 
      1     -31.9370      1.00000
      2     -29.7652      1.00000
      3     -29.7603      1.00000
      4     -21.9977      1.00000
      5     -20.3403      1.00000
      6     -20.2588      1.00000
      7     -19.3121      1.00000
      8     -19.1372      1.00000
      9     -18.7924      1.00000
     10     -18.2273      1.00000
     11     -17.7486      1.00000
     12     -17.1974      1.00000
     13     -16.7703      1.00000
     14     -16.5875      1.00000
     15     -15.9638      1.00000
     16     -14.9623      1.00000
     17     -14.7449      1.00000
     18     -14.0443      1.00000
     19     -13.7106      1.00000
     20     -13.4621      1.00000
     21     -13.4580      1.00000
     22     -13.3117      1.00000
     23     -12.9795      1.00000
     24     -12.2052      1.00000
     25     -11.6215      1.00000
     26     -11.4611      1.00000
     27     -10.1581      1.00000
     28     -10.1300      1.00000
     29     -10.0727      1.00000
     30     -10.0648      1.00000
     31     -10.0374      1.00000
     32      -9.2342      1.00000
     33      -9.2308      1.00000
     34      -8.8532      1.00000
     35      -8.6550      1.00000
     36      -8.6009      1.00000
     37      -8.4519      1.00000
     38      -8.0464      1.00000
     39      -7.9244      1.00000
     40      -7.8499      1.00000
     41      -7.7585      1.00000
     42      -7.6770      1.00000
     43      -6.7665      1.00000
     44      -6.3339      1.00000
     45      -5.6540      1.00000
     46      -5.5789      1.00000
     47      -5.1947      1.00000
     48      -5.1823      1.00000
     49      -4.5840      1.00000
     50      -2.9186      0.00000
     51      -2.1484      0.00000
     52      -1.4374      0.00000
     53      -0.9977      0.00000
     54      -0.6684      0.00000
     55      -0.2652      0.00000
     56      -0.0048      0.00000
     57       0.4611      0.00000
     58       0.8311      0.00000
     59       1.1342      0.00000
     60       1.4309      0.00000
     61       1.5969      0.00000

 k-point   108 :       0.3158    0.0000    0.3158
  band No.  band energies     occupation 
      1     -31.9370      1.00000
      2     -29.7652      1.00000
      3     -29.7603      1.00000
      4     -21.9987      1.00000
      5     -20.3300      1.00000
      6     -20.2546      1.00000
      7     -19.3144      1.00000
      8     -19.1637      1.00000
      9     -18.8352      1.00000
     10     -18.1849      1.00000
     11     -17.6862      1.00000
     12     -17.1923      1.00000
     13     -16.7703      1.00000
     14     -16.5947      1.00000
     15     -16.0449      1.00000
     16     -15.0378      1.00000
     17     -14.6598      1.00000
     18     -13.9913      1.00000
     19     -13.7106      1.00000
     20     -13.4621      1.00000
     21     -13.4580      1.00000
     22     -13.2913      1.00000
     23     -13.0069      1.00000
     24     -12.2074      1.00000
     25     -11.6324      1.00000
     26     -11.4820      1.00000
     27     -10.1587      1.00000
     28     -10.1290      1.00000
     29     -10.0771      1.00000
     30     -10.0557      1.00000
     31     -10.0310      1.00000
     32      -9.2342      1.00000
     33      -9.2308      1.00000
     34      -8.8230      1.00000
     35      -8.6549      1.00000
     36      -8.5870      1.00000
     37      -8.4512      1.00000
     38      -8.0494      1.00000
     39      -7.9205      1.00000
     40      -7.8492      1.00000
     41      -7.7661      1.00000
     42      -7.7176      1.00000
     43      -6.8463      1.00000
     44      -6.2943      1.00000
     45      -5.6785      1.00000
     46      -5.6014      1.00000
     47      -5.1516      1.00000
     48      -5.0832      1.00000
     49      -4.5592      1.00000
     50      -2.9482      0.00000
     51      -2.2873      0.00000
     52      -1.3982      0.00000
     53      -0.9979      0.00000
     54      -0.6984      0.00000
     55      -0.1100      0.00000
     56      -0.0802      0.00000
     57       0.4263      0.00000
     58       0.8107      0.00000
     59       1.1743      0.00000
     60       1.4316      0.00000
     61       1.6020      0.00000

 k-point   109 :       0.2895    0.0000    0.2895
  band No.  band energies     occupation 
      1     -31.9370      1.00000
      2     -29.7652      1.00000
      3     -29.7603      1.00000
      4     -21.9996      1.00000
      5     -20.3185      1.00000
      6     -20.2500      1.00000
      7     -19.3172      1.00000
      8     -19.1905      1.00000
      9     -18.8775      1.00000
     10     -18.1404      1.00000
     11     -17.6210      1.00000
     12     -17.1860      1.00000
     13     -16.7703      1.00000
     14     -16.6037      1.00000
     15     -16.1264      1.00000
     16     -15.1117      1.00000
     17     -14.5736      1.00000
     18     -13.9436      1.00000
     19     -13.7106      1.00000
     20     -13.4621      1.00000
     21     -13.4580      1.00000
     22     -13.2672      1.00000
     23     -13.0386      1.00000
     24     -12.2098      1.00000
     25     -11.6439      1.00000
     26     -11.5052      1.00000
     27     -10.1594      1.00000
     28     -10.1281      1.00000
     29     -10.0828      1.00000
     30     -10.0451      1.00000
     31     -10.0234      1.00000
     32      -9.2341      1.00000
     33      -9.2308      1.00000
     34      -8.7892      1.00000
     35      -8.6548      1.00000
     36      -8.5710      1.00000
     37      -8.4502      1.00000
     38      -8.0532      1.00000
     39      -7.9164      1.00000
     40      -7.8483      1.00000
     41      -7.7779      1.00000
     42      -7.7567      1.00000
     43      -6.9263      1.00000
     44      -6.2537      1.00000
     45      -5.7007      1.00000
     46      -5.6255      1.00000
     47      -5.1091      1.00000
     48      -4.9805      1.00000
     49      -4.5298      1.00000
     50      -2.9828      0.00000
     51      -2.4242      0.00000
     52      -1.3558      0.00000
     53      -0.9980      0.00000
     54      -0.7308      0.00000
     55      -0.1549      0.00000
     56       0.0458      0.00000
     57       0.3938      0.00000
     58       0.7892      0.00000
     59       1.2122      0.00000
     60       1.4241      0.00000
     61       1.6187      0.00000

 k-point   110 :       0.2632    0.0000    0.2632
  band No.  band energies     occupation 
      1     -31.9370      1.00000
      2     -29.7652      1.00000
      3     -29.7603      1.00000
      4     -22.0007      1.00000
      5     -20.3062      1.00000
      6     -20.2451      1.00000
      7     -19.3206      1.00000
      8     -19.2170      1.00000
      9     -18.9183      1.00000
     10     -18.0946      1.00000
     11     -17.5540      1.00000
     12     -17.1781      1.00000
     13     -16.7703      1.00000
     14     -16.6146      1.00000
     15     -16.2078      1.00000
     16     -15.1835      1.00000
     17     -14.4869      1.00000
     18     -13.9016      1.00000
     19     -13.7106      1.00000
     20     -13.4620      1.00000
     21     -13.4580      1.00000
     22     -13.2398      1.00000
     23     -13.0746      1.00000
     24     -12.2124      1.00000
     25     -11.6555      1.00000
     26     -11.5300      1.00000
     27     -10.1603      1.00000
     28     -10.1274      1.00000
     29     -10.0888      1.00000
     30     -10.0340      1.00000
     31     -10.0152      1.00000
     32      -9.2341      1.00000
     33      -9.2308      1.00000
     34      -8.7525      1.00000
     35      -8.6547      1.00000
     36      -8.5528      1.00000
     37      -8.4488      1.00000
     38      -8.0581      1.00000
     39      -7.9122      1.00000
     40      -7.8473      1.00000
     41      -7.8117      1.00000
     42      -7.7757      1.00000
     43      -7.0052      1.00000
     44      -6.2131      1.00000
     45      -5.7208      1.00000
     46      -5.6504      1.00000
     47      -5.0677      1.00000
     48      -4.8757      1.00000
     49      -4.4958      1.00000
     50      -3.0224      0.00000
     51      -2.5586      0.00000
     52      -1.3112      0.00000
     53      -0.9982      0.00000
     54      -0.7645      0.00000
     55      -0.2273      0.00000
     56       0.2016      0.00000
     57       0.3636      0.00000
     58       0.7674      0.00000
     59       1.2358      0.00000
     60       1.4244      0.00000
     61       1.6793      0.00000

 k-point   111 :       0.2368    0.0000    0.2368
  band No.  band energies     occupation 
      1     -31.9370      1.00000
      2     -29.7652      1.00000
      3     -29.7603      1.00000
      4     -22.0017      1.00000
      5     -20.2933      1.00000
      6     -20.2401      1.00000
      7     -19.3248      1.00000
      8     -19.2425      1.00000
      9     -18.9568      1.00000
     10     -18.0484      1.00000
     11     -17.4857      1.00000
     12     -17.1683      1.00000
     13     -16.7703      1.00000
     14     -16.6277      1.00000
     15     -16.2884      1.00000
     16     -15.2522      1.00000
     17     -14.4003      1.00000
     18     -13.8654      1.00000
     19     -13.7106      1.00000
     20     -13.4620      1.00000
     21     -13.4580      1.00000
     22     -13.2095      1.00000
     23     -13.1147      1.00000
     24     -12.2149      1.00000
     25     -11.6670      1.00000
     26     -11.5560      1.00000
     27     -10.1613      1.00000
     28     -10.1268      1.00000
     29     -10.0948      1.00000
     30     -10.0227      1.00000
     31     -10.0067      1.00000
     32      -9.2341      1.00000
     33      -9.2308      1.00000
     34      -8.7133      1.00000
     35      -8.6547      1.00000
     36      -8.5326      1.00000
     37      -8.4470      1.00000
     38      -8.0643      1.00000
     39      -7.9082      1.00000
     40      -7.8566      1.00000
     41      -7.8458      1.00000
     42      -7.7848      1.00000
     43      -7.0819      1.00000
     44      -6.1737      1.00000
     45      -5.7388      1.00000
     46      -5.6755      1.00000
     47      -5.0280      1.00000
     48      -4.7697      1.00000
     49      -4.4569      1.00000
     50      -3.0672      0.00000
     51      -2.6899      0.00000
     52      -1.2656      0.00000
     53      -0.9984      0.00000
     54      -0.7987      0.00000
     55      -0.2959      0.00000
     56       0.3360      0.00000
     57       0.3555      0.00000
     58       0.7469      0.00000
     59       1.2415      0.00000
     60       1.4420      0.00000
     61       1.6668      0.00000

 k-point   112 :       0.2105    0.0000    0.2105
  band No.  band energies     occupation 
      1     -31.9370      1.00000
      2     -29.7652      1.00000
      3     -29.7603      1.00000
      4     -22.0027      1.00000
      5     -20.2801      1.00000
      6     -20.2349      1.00000
      7     -19.3297      1.00000
      8     -19.2665      1.00000
      9     -18.9922      1.00000
     10     -18.0029      1.00000
     11     -17.4168      1.00000
     12     -17.1562      1.00000
     13     -16.7703      1.00000
     14     -16.6435      1.00000
     15     -16.3679      1.00000
     16     -15.3172      1.00000
     17     -14.3140      1.00000
     18     -13.8348      1.00000
     19     -13.7106      1.00000
     20     -13.4620      1.00000
     21     -13.4581      1.00000
     22     -13.1773      1.00000
     23     -13.1589      1.00000
     24     -12.2174      1.00000
     25     -11.6780      1.00000
     26     -11.5826      1.00000
     27     -10.1626      1.00000
     28     -10.1264      1.00000
     29     -10.1005      1.00000
     30     -10.0115      1.00000
     31      -9.9982      1.00000
     32      -9.2341      1.00000
     33      -9.2308      1.00000
     34      -8.6725      1.00000
     35      -8.6546      1.00000
     36      -8.5104      1.00000
     37      -8.4444      1.00000
     38      -8.0721      1.00000
     39      -7.9046      1.00000
     40      -7.9024      1.00000
     41      -7.8445      1.00000
     42      -7.7929      1.00000
     43      -7.1553      1.00000
     44      -6.1364      1.00000
     45      -5.7547      1.00000
     46      -5.7002      1.00000
     47      -4.9904      1.00000
     48      -4.6634      1.00000
     49      -4.4130      1.00000
     50      -3.1170      0.00000
     51      -2.8179      0.00000
     52      -1.2201      0.00000
     53      -0.9986      0.00000
     54      -0.8325      0.00000
     55      -0.3597      0.00000
     56       0.3111      0.00000
     57       0.5102      0.00000
     58       0.7281      0.00000
     59       1.2321      0.00000
     60       1.4751      0.00000
     61       1.6990      0.00000

 k-point   113 :       0.1842    0.0000    0.1842
  band No.  band energies     occupation 
      1     -31.9370      1.00000
      2     -29.7651      1.00000
      3     -29.7603      1.00000
      4     -22.0037      1.00000
      5     -20.2670      1.00000
      6     -20.2299      1.00000
      7     -19.3353      1.00000
      8     -19.2887      1.00000
      9     -19.0240      1.00000
     10     -17.9590      1.00000
     11     -17.3480      1.00000
     12     -17.1413      1.00000
     13     -16.7704      1.00000
     14     -16.6623      1.00000
     15     -16.4458      1.00000
     16     -15.3775      1.00000
     17     -14.2285      1.00000
     18     -13.8095      1.00000
     19     -13.7106      1.00000
     20     -13.4619      1.00000
     21     -13.4581      1.00000
     22     -13.2070      1.00000
     23     -13.1441      1.00000
     24     -12.2198      1.00000
     25     -11.6883      1.00000
     26     -11.6090      1.00000
     27     -10.1640      1.00000
     28     -10.1260      1.00000
     29     -10.1056      1.00000
     30     -10.0009      1.00000
     31      -9.9901      1.00000
     32      -9.2340      1.00000
     33      -9.2307      1.00000
     34      -8.6547      1.00000
     35      -8.6308      1.00000
     36      -8.4862      1.00000
     37      -8.4404      1.00000
     38      -8.0819      1.00000
     39      -7.9487      1.00000
     40      -7.9010      1.00000
     41      -7.8428      1.00000
     42      -7.8003      1.00000
     43      -7.2243      1.00000
     44      -6.1018      1.00000
     45      -5.7685      1.00000
     46      -5.7237      1.00000
     47      -4.9556      1.00000
     48      -4.5578      1.00000
     49      -4.3642      1.00000
     50      -3.1716      0.00000
     51      -2.9418      0.00000
     52      -1.1761      0.00000
     53      -0.9988      0.00000
     54      -0.8649      0.00000
     55      -0.4177      0.00000
     56       0.2889      0.00000
     57       0.7036      0.00000
     58       0.7112      0.00000
     59       1.2156      0.00000
     60       1.5143      0.00000
     61       1.7252      0.00000

 k-point   114 :       0.1579    0.0000    0.1579
  band No.  band energies     occupation 
      1     -31.9370      1.00000
      2     -29.7651      1.00000
      3     -29.7602      1.00000
      4     -22.0046      1.00000
      5     -20.2544      1.00000
      6     -20.2251      1.00000
      7     -19.3415      1.00000
      8     -19.3087      1.00000
      9     -19.0518      1.00000
     10     -17.9178      1.00000
     11     -17.2796      1.00000
     12     -17.1230      1.00000
     13     -16.7705      1.00000
     14     -16.6845      1.00000
     15     -16.5218      1.00000
     16     -15.4323      1.00000
     17     -14.1441      1.00000
     18     -13.7889      1.00000
     19     -13.7106      1.00000
     20     -13.4619      1.00000
     21     -13.4581      1.00000
     22     -13.2588      1.00000
     23     -13.1113      1.00000
     24     -12.2220      1.00000
     25     -11.6975      1.00000
     26     -11.6346      1.00000
     27     -10.1655      1.00000
     28     -10.1257      1.00000
     29     -10.1100      1.00000
     30      -9.9911      1.00000
     31      -9.9825      1.00000
     32      -9.2340      1.00000
     33      -9.2307      1.00000
     34      -8.6546      1.00000
     35      -8.5903      1.00000
     36      -8.4601      1.00000
     37      -8.4340      1.00000
     38      -8.0943      1.00000
     39      -7.9945      1.00000
     40      -7.8981      1.00000
     41      -7.8410      1.00000
     42      -7.8072      1.00000
     43      -7.2878      1.00000
     44      -6.0708      1.00000
     45      -5.7802      1.00000
     46      -5.7454      1.00000
     47      -4.9241      1.00000
     48      -4.4537      1.00000
     49      -4.3109      1.00000
     50      -3.2305      0.00000
     51      -3.0610      0.00000
     52      -1.1347      0.00000
     53      -0.9989      0.00000
     54      -0.8951      0.00000
     55      -0.4692      0.00000
     56       0.2696      0.00000
     57       0.6963      0.00000
     58       0.8513      0.00000
     59       1.1972      0.00000
     60       1.5544      0.00000
     61       1.7457      0.00000

 k-point   115 :       0.1316    0.0000    0.1316
  band No.  band energies     occupation 
      1     -31.9370      1.00000
      2     -29.7651      1.00000
      3     -29.7602      1.00000
      4     -22.0054      1.00000
      5     -20.2426      1.00000
      6     -20.2207      1.00000
      7     -19.3482      1.00000
      8     -19.3262      1.00000
      9     -19.0751      1.00000
     10     -17.8804      1.00000
     11     -17.2123      1.00000
     12     -17.1007      1.00000
     13     -16.7707      1.00000
     14     -16.7106      1.00000
     15     -16.5954      1.00000
     16     -15.4807      1.00000
     17     -14.0613      1.00000
     18     -13.7726      1.00000
     19     -13.7106      1.00000
     20     -13.4619      1.00000
     21     -13.4581      1.00000
     22     -13.3140      1.00000
     23     -13.0802      1.00000
     24     -12.2240      1.00000
     25     -11.7057      1.00000
     26     -11.6584      1.00000
     27     -10.1670      1.00000
     28     -10.1255      1.00000
     29     -10.1138      1.00000
     30      -9.9823      1.00000
     31      -9.9756      1.00000
     32      -9.2340      1.00000
     33      -9.2307      1.00000
     34      -8.6546      1.00000
     35      -8.5534      1.00000
     36      -8.4325      1.00000
     37      -8.4229      1.00000
     38      -8.1097      1.00000
     39      -8.0395      1.00000
     40      -7.8958      1.00000
     41      -7.8391      1.00000
     42      -7.8134      1.00000
     43      -7.3446      1.00000
     44      -6.0437      1.00000
     45      -5.7901      1.00000
     46      -5.7648      1.00000
     47      -4.8964      1.00000
     48      -4.3526      1.00000
     49      -4.2536      1.00000
     50      -3.2930      0.00000
     51      -3.1745      0.00000
     52      -1.0971      0.00000
     53      -0.9990      0.00000
     54      -0.9223      0.00000
     55      -0.5136      0.00000
     56       0.2531      0.00000
     57       0.6837      0.00000
     58       1.1657      0.00000
     59       1.1811      0.00000
     60       1.5931      0.00000
     61       1.7821      0.00000

 k-point   116 :       0.1053    0.0000    0.1053
  band No.  band energies     occupation 
      1     -31.9370      1.00000
      2     -29.7651      1.00000
      3     -29.7603      1.00000
      4     -22.0061      1.00000
      5     -20.2322      1.00000
      6     -20.2169      1.00000
      7     -19.3548      1.00000
      8     -19.3409      1.00000
      9     -19.0939      1.00000
     10     -17.8478      1.00000
     11     -17.1467      1.00000
     12     -17.0738      1.00000
     13     -16.7714      1.00000
     14     -16.7405      1.00000
     15     -16.6662      1.00000
     16     -15.5219      1.00000
     17     -13.9804      1.00000
     18     -13.7600      1.00000
     19     -13.7106      1.00000
     20     -13.4619      1.00000
     21     -13.4581      1.00000
     22     -13.3722      1.00000
     23     -13.0524      1.00000
     24     -12.2257      1.00000
     25     -11.7125      1.00000
     26     -11.6796      1.00000
     27     -10.1685      1.00000
     28     -10.1253      1.00000
     29     -10.1167      1.00000
     30      -9.9749      1.00000
     31      -9.9697      1.00000
     32      -9.2340      1.00000
     33      -9.2307      1.00000
     34      -8.6546      1.00000
     35      -8.5240      1.00000
     36      -8.4060      1.00000
     37      -8.4015      1.00000
     38      -8.1286      1.00000
     39      -8.0831      1.00000
     40      -7.8940      1.00000
     41      -7.8372      1.00000
     42      -7.8186      1.00000
     43      -7.3934      1.00000
     44      -6.0211      1.00000
     45      -5.7980      1.00000
     46      -5.7814      1.00000
     47      -4.8729      1.00000
     48      -4.2561      1.00000
     49      -4.1937      1.00000
     50      -3.3575      0.00000
     51      -3.2807      0.00000
     52      -1.0646      0.00000
     53      -0.9991      0.00000
     54      -0.9456      0.00000
     55      -0.5505      0.00000
     56       0.2396      0.00000
     57       0.6733      0.00000
     58       1.1646      0.00000
     59       1.6227      0.00000
     60       1.7795      0.00000
     61       1.8180      0.00000

 k-point   117 :       0.0789    0.0000    0.0789
  band No.  band energies     occupation 
      1     -31.9370      1.00000
      2     -29.7651      1.00000
      3     -29.7602      1.00000
      4     -22.0066      1.00000
      5     -20.2236      1.00000
      6     -20.2137      1.00000
      7     -19.3609      1.00000
      8     -19.3526      1.00000
      9     -19.1083      1.00000
     10     -17.8212      1.00000
     11     -17.0832      1.00000
     12     -17.0417      1.00000
     13     -16.7808      1.00000
     14     -16.7662      1.00000
     15     -16.7336      1.00000
     16     -15.5548      1.00000
     17     -13.9025      1.00000
     18     -13.7506      1.00000
     19     -13.7106      1.00000
     20     -13.4619      1.00000
     21     -13.4582      1.00000
     22     -13.4324      1.00000
     23     -13.0291      1.00000
     24     -12.2271      1.00000
     25     -11.7180      1.00000
     26     -11.6973      1.00000
     27     -10.1698      1.00000
     28     -10.1252      1.00000
     29     -10.1190      1.00000
     30      -9.9689      1.00000
     31      -9.9650      1.00000
     32      -9.2340      1.00000
     33      -9.2307      1.00000
     34      -8.6546      1.00000
     35      -8.5048      1.00000
     36      -8.3780      1.00000
     37      -8.3715      1.00000
     38      -8.1512      1.00000
     39      -8.1250      1.00000
     40      -7.8928      1.00000
     41      -7.8356      1.00000
     42      -7.8229      1.00000
     43      -7.4329      1.00000
     44      -6.0032      1.00000
     45      -5.8042      1.00000
     46      -5.7948      1.00000
     47      -4.8542      1.00000
     48      -4.1670      1.00000
     49      -4.1337      1.00000
     50      -3.4214      0.00000
     51      -3.3769      0.00000
     52      -1.0381      0.00000
     53      -0.9991      0.00000
     54      -0.9645      0.00000
     55      -0.5795      0.00000
     56       0.2290      0.00000
     57       0.6652      0.00000
     58       1.1523      0.00000
     59       1.6479      0.00000
     60       1.8019      0.00000
     61       1.8145      0.00000

 k-point   118 :       0.0526    0.0000    0.0526
  band No.  band energies     occupation 
      1     -31.9370      1.00000
      2     -29.7651      1.00000
      3     -29.7602      1.00000
      4     -22.0071      1.00000
      5     -20.2171      1.00000
      6     -20.2113      1.00000
      7     -19.3659      1.00000
      8     -19.3611      1.00000
      9     -19.1183      1.00000
     10     -17.8014      1.00000
     11     -17.0225      1.00000
     12     -17.0040      1.00000
     13     -16.8178      1.00000
     14     -16.7972      1.00000
     15     -16.7691      1.00000
     16     -15.5790      1.00000
     17     -13.8293      1.00000
     18     -13.7442      1.00000
     19     -13.7106      1.00000
     20     -13.4933      1.00000
     21     -13.4619      1.00000
     22     -13.4579      1.00000
     23     -13.0115      1.00000
     24     -12.2281      1.00000
     25     -11.7220      1.00000
     26     -11.7106      1.00000
     27     -10.1708      1.00000
     28     -10.1251      1.00000
     29     -10.1205      1.00000
     30      -9.9646      1.00000
     31      -9.9614      1.00000
     32      -9.2340      1.00000
     33      -9.2307      1.00000
     34      -8.6546      1.00000
     35      -8.4941      1.00000
     36      -8.3448      1.00000
     37      -8.3406      1.00000
     38      -8.1769      1.00000
     39      -8.1641      1.00000
     40      -7.8920      1.00000
     41      -7.8343      1.00000
     42      -7.8260      1.00000
     43      -7.4620      1.00000
     44      -5.9903      1.00000
     45      -5.8085      1.00000
     46      -5.8046      1.00000
     47      -4.8406      1.00000
     48      -4.0906      1.00000
     49      -4.0781      1.00000
     50      -3.4799      0.00000
     51      -3.4584      0.00000
     52      -1.0188      0.00000
     53      -0.9988      0.00000
     54      -0.9783      0.00000
     55      -0.6003      0.00000
     56       0.2215      0.00000
     57       0.6594      0.00000
     58       1.1433      0.00000
     59       1.6683      0.00000
     60       1.8215      0.00000
     61       1.8550      0.00000

 k-point   119 :       0.0263    0.0000    0.0263
  band No.  band energies     occupation 
      1     -31.9371      1.00000
      2     -29.7651      1.00000
      3     -29.7603      1.00000
      4     -22.0073      1.00000
      5     -20.2131      1.00000
      6     -20.2099      1.00000
      7     -19.3691      1.00000
      8     -19.3663      1.00000
      9     -19.1242      1.00000
     10     -17.7893      1.00000
     11     -16.9652      1.00000
     12     -16.9608      1.00000
     13     -16.8620      1.00000
     14     -16.8563      1.00000
     15     -16.7695      1.00000
     16     -15.5937      1.00000
     17     -13.7667      1.00000
     18     -13.7404      1.00000
     19     -13.7106      1.00000
     20     -13.5483      1.00000
     21     -13.4618      1.00000
     22     -13.4580      1.00000
     23     -13.0005      1.00000
     24     -12.2287      1.00000
     25     -11.7245      1.00000
     26     -11.7187      1.00000
     27     -10.1715      1.00000
     28     -10.1251      1.00000
     29     -10.1214      1.00000
     30      -9.9619      1.00000
     31      -9.9592      1.00000
     32      -9.2340      1.00000
     33      -9.2308      1.00000
     34      -8.6546      1.00000
     35      -8.4890      1.00000
     36      -8.3130      1.00000
     37      -8.3123      1.00000
     38      -8.2026      1.00000
     39      -8.1972      1.00000
     40      -7.8915      1.00000
     41      -7.8335      1.00000
     42      -7.8279      1.00000
     43      -7.4799      1.00000
     44      -5.9825      1.00000
     45      -5.8112      1.00000
     46      -5.8105      1.00000
     47      -4.8323      1.00000
     48      -4.0368      1.00000
     49      -4.0346      1.00000
     50      -3.5241      0.00000
     51      -3.5162      0.00000
     52      -1.0078      0.00000
     53      -0.9979      0.00000
     54      -0.9868      0.00000
     55      -0.6129      0.00000
     56       0.2169      0.00000
     57       0.6559      0.00000
     58       1.1378      0.00000
     59       1.6841      0.00000
     60       1.8296      0.00000
     61       1.9116      0.00000

 k-point   120 :       0.0000    0.0000    0.0000
  band No.  band energies     occupation 
      1     -31.9371      1.00000
      2     -29.7651      1.00000
      3     -29.7603      1.00000
      4     -22.0074      1.00000
      5     -20.2117      1.00000
      6     -20.2093      1.00000
      7     -19.3702      1.00000
      8     -19.3680      1.00000
      9     -19.1262      1.00000
     10     -17.7852      1.00000
     11     -16.9188      1.00000
     12     -16.9160      1.00000
     13     -16.9066      1.00000
     14     -16.9038      1.00000
     15     -16.7695      1.00000
     16     -15.5986      1.00000
     17     -13.7392      1.00000
     18     -13.7366      1.00000
     19     -13.7106      1.00000
     20     -13.5758      1.00000
     21     -13.4618      1.00000
     22     -13.4580      1.00000
     23     -12.9968      1.00000
     24     -12.2289      1.00000
     25     -11.7255      1.00000
     26     -11.7214      1.00000
     27     -10.1717      1.00000
     28     -10.1250      1.00000
     29     -10.1217      1.00000
     30      -9.9611      1.00000
     31      -9.9585      1.00000
     32      -9.2340      1.00000
     33      -9.2308      1.00000
     34      -8.6546      1.00000
     35      -8.4875      1.00000
     36      -8.2984      1.00000
     37      -8.2968      1.00000
     38      -8.2164      1.00000
     39      -8.2129      1.00000
     40      -7.8914      1.00000
     41      -7.8332      1.00000
     42      -7.8286      1.00000
     43      -7.4859      1.00000
     44      -5.9799      1.00000
     45      -5.8126      1.00000
     46      -5.8119      1.00000
     47      -4.8295      1.00000
     48      -4.0198      1.00000
     49      -4.0144      1.00000
     50      -3.5413      0.00000
     51      -3.5378      0.00000
     52      -1.0047      0.00000
     53      -0.9969      0.00000
     54      -0.9896      0.00000
     55      -0.6171      0.00000
     56       0.2154      0.00000
     57       0.6548      0.00000
     58       1.1360      0.00000
     59       1.6868      0.00000
     60       1.8287      0.00000
     61       1.8490      0.00000

 k-point   121 :       0.0000    0.0000    0.0000
  band No.  band energies     occupation 
      1     -31.9371      1.00000
      2     -29.7651      1.00000
      3     -29.7603      1.00000
      4     -22.0074      1.00000
      5     -20.2117      1.00000
      6     -20.2093      1.00000
      7     -19.3702      1.00000
      8     -19.3680      1.00000
      9     -19.1262      1.00000
     10     -17.7852      1.00000
     11     -16.9188      1.00000
     12     -16.9160      1.00000
     13     -16.9066      1.00000
     14     -16.9038      1.00000
     15     -16.7695      1.00000
     16     -15.5986      1.00000
     17     -13.7392      1.00000
     18     -13.7366      1.00000
     19     -13.7106      1.00000
     20     -13.5758      1.00000
     21     -13.4618      1.00000
     22     -13.4580      1.00000
     23     -12.9968      1.00000
     24     -12.2289      1.00000
     25     -11.7255      1.00000
     26     -11.7214      1.00000
     27     -10.1717      1.00000
     28     -10.1250      1.00000
     29     -10.1217      1.00000
     30      -9.9611      1.00000
     31      -9.9585      1.00000
     32      -9.2340      1.00000
     33      -9.2308      1.00000
     34      -8.6546      1.00000
     35      -8.4875      1.00000
     36      -8.2984      1.00000
     37      -8.2968      1.00000
     38      -8.2164      1.00000
     39      -8.2129      1.00000
     40      -7.8914      1.00000
     41      -7.8332      1.00000
     42      -7.8286      1.00000
     43      -7.4859      1.00000
     44      -5.9799      1.00000
     45      -5.8126      1.00000
     46      -5.8119      1.00000
     47      -4.8295      1.00000
     48      -4.0198      1.00000
     49      -4.0144      1.00000
     50      -3.5413      0.00000
     51      -3.5378      0.00000
     52      -1.0047      0.00000
     53      -0.9969      0.00000
     54      -0.9896      0.00000
     55      -0.6171      0.00000
     56       0.2154      0.00000
     57       0.6548      0.00000
     58       1.1360      0.00000
     59       1.6867      0.00000
     60       1.8267      0.00000
     61       1.8652      0.00000

 k-point   122 :       0.0263    0.0263    0.0000
  band No.  band energies     occupation 
      1     -31.9371      1.00000
      2     -29.7651      1.00000
      3     -29.7603      1.00000
      4     -22.0071      1.00000
      5     -20.2151      1.00000
      6     -20.2115      1.00000
      7     -19.3666      1.00000
      8     -19.3631      1.00000
      9     -19.1203      1.00000
     10     -17.7975      1.00000
     11     -17.0009      1.00000
     12     -16.9991      1.00000
     13     -16.8229      1.00000
     14     -16.8195      1.00000
     15     -16.7692      1.00000
     16     -15.5838      1.00000
     17     -13.8117      1.00000
     18     -13.7420      1.00000
     19     -13.7106      1.00000
     20     -13.5092      1.00000
     21     -13.4618      1.00000
     22     -13.4579      1.00000
     23     -13.0078      1.00000
     24     -12.2283      1.00000
     25     -11.7214      1.00000
     26     -11.7147      1.00000
     27     -10.1709      1.00000
     28     -10.1250      1.00000
     29     -10.1211      1.00000
     30      -9.9638      1.00000
     31      -9.9606      1.00000
     32      -9.2340      1.00000
     33      -9.2308      1.00000
     34      -8.6546      1.00000
     35      -8.4912      1.00000
     36      -8.3395      1.00000
     37      -8.3313      1.00000
     38      -8.1809      1.00000
     39      -8.1754      1.00000
     40      -7.8918      1.00000
     41      -7.8335      1.00000
     42      -7.8271      1.00000
     43      -7.4681      1.00000
     44      -5.9877      1.00000
     45      -5.8097      1.00000
     46      -5.8062      1.00000
     47      -4.8378      1.00000
     48      -4.0742      1.00000
     49      -4.0639      1.00000
     50      -3.4920      0.00000
     51      -3.4783      0.00000
     52      -1.0139      0.00000
     53      -0.9989      0.00000
     54      -0.9820      0.00000
     55      -0.6046      0.00000
     56       0.2199      0.00000
     57       0.6587      0.00000
     58       1.1402      0.00000
     59       1.6739      0.00000
     60       1.8284      0.00000
     61       1.8739      0.00000

 k-point   123 :       0.0526    0.0526    0.0000
  band No.  band energies     occupation 
      1     -31.9370      1.00000
      2     -29.7651      1.00000
      3     -29.7602      1.00000
      4     -22.0064      1.00000
      5     -20.2263      1.00000
      6     -20.2161      1.00000
      7     -19.3564      1.00000
      8     -19.3494      1.00000
      9     -19.1022      1.00000
     10     -17.8329      1.00000
     11     -17.0894      1.00000
     12     -17.0838      1.00000
     13     -16.7707      1.00000
     14     -16.7337      1.00000
     15     -16.7247      1.00000
     16     -15.5406      1.00000
     17     -13.9392      1.00000
     18     -13.7531      1.00000
     19     -13.7106      1.00000
     20     -13.4619      1.00000
     21     -13.4581      1.00000
     22     -13.4051      1.00000
     23     -13.0391      1.00000
     24     -12.2265      1.00000
     25     -11.7138      1.00000
     26     -11.6913      1.00000
     27     -10.1687      1.00000
     28     -10.1251      1.00000
     29     -10.1189      1.00000
     30      -9.9717      1.00000
     31      -9.9667      1.00000
     32      -9.2340      1.00000
     33      -9.2308      1.00000
     34      -8.6547      1.00000
     35      -8.5069      1.00000
     36      -8.4044      1.00000
     37      -8.3819      1.00000
     38      -8.1318      1.00000
     39      -8.1109      1.00000
     40      -7.8934      1.00000
     41      -7.8354      1.00000
     42      -7.8217      1.00000
     43      -7.4163      1.00000
     44      -6.0110      1.00000
     45      -5.8021      1.00000
     46      -5.7885      1.00000
     47      -4.8623      1.00000
     48      -4.1968      1.00000
     49      -4.1725      1.00000
     50      -3.3794      0.00000
     51      -3.3455      0.00000
     52      -1.0425      0.00000
     53      -1.0100      0.00000
     54      -0.9525      0.00000
     55      -0.5671      0.00000
     56       0.2334      0.00000
     57       0.6705      0.00000
     58       1.1525      0.00000
     59       1.6379      0.00000
     60       1.7889      0.00000
     61       1.8367      0.00000

 k-point   124 :       0.0789    0.0789    0.0000
  band No.  band energies     occupation 
      1     -31.9370      1.00000
      2     -29.7651      1.00000
      3     -29.7603      1.00000
      4     -22.0053      1.00000
      5     -20.2434      1.00000
      6     -20.2231      1.00000
      7     -19.3396      1.00000
      8     -19.3303      1.00000
      9     -19.0708      1.00000
     10     -17.8879      1.00000
     11     -17.1776      1.00000
     12     -17.1651      1.00000
     13     -16.7702      1.00000
     14     -16.6454      1.00000
     15     -16.6290      1.00000
     16     -15.4716      1.00000
     17     -14.0792      1.00000
     18     -13.7711      1.00000
     19     -13.7106      1.00000
     20     -13.4619      1.00000
     21     -13.4581      1.00000
     22     -13.3091      1.00000
     23     -13.0825      1.00000
     24     -12.2236      1.00000
     25     -11.7023      1.00000
     26     -11.6558      1.00000
     27     -10.1657      1.00000
     28     -10.1253      1.00000
     29     -10.1148      1.00000
     30      -9.9842      1.00000
     31      -9.9763      1.00000
     32      -9.2340      1.00000
     33      -9.2308      1.00000
     34      -8.6548      1.00000
     35      -8.5477      1.00000
     36      -8.4614      1.00000
     37      -8.4197      1.00000
     38      -8.0923      1.00000
     39      -8.0391      1.00000
     40      -7.8963      1.00000
     41      -7.8387      1.00000
     42      -7.8124      1.00000
     43      -7.3351      1.00000
     44      -6.0489      1.00000
     45      -5.7895      1.00000
     46      -5.7601      1.00000
     47      -4.9016      1.00000
     48      -4.3378      1.00000
     49      -4.3039      1.00000
     50      -3.2406      0.00000
     51      -3.1878      0.00000
     52      -1.0873      0.00000
     53      -1.0289      0.00000
     54      -0.9040      0.00000
     55      -0.5056      0.00000
     56       0.2557      0.00000
     57       0.6898      0.00000
     58       1.1723      0.00000
     59       1.5834      0.00000
     60       1.7239      0.00000
     61       1.7929      0.00000

 k-point   125 :       0.1053    0.1053    0.0000
  band No.  band energies     occupation 
      1     -31.9370      1.00000
      2     -29.7652      1.00000
      3     -29.7603      1.00000
      4     -22.0038      1.00000
      5     -20.2637      1.00000
      6     -20.2322      1.00000
      7     -19.3169      1.00000
      8     -19.3093      1.00000
      9     -19.0258      1.00000
     10     -17.9574      1.00000
     11     -17.2655      1.00000
     12     -17.2432      1.00000
     13     -16.7701      1.00000
     14     -16.5575      1.00000
     15     -16.5317      1.00000
     16     -15.3809      1.00000
     17     -14.2260      1.00000
     18     -13.7958      1.00000
     19     -13.7106      1.00000
     20     -13.4619      1.00000
     21     -13.4581      1.00000
     22     -13.2539      1.00000
     23     -13.1066      1.00000
     24     -12.2199      1.00000
     25     -11.6868      1.00000
     26     -11.6132      1.00000
     27     -10.1624      1.00000
     28     -10.1257      1.00000
     29     -10.1087      1.00000
     30     -10.0004      1.00000
     31      -9.9886      1.00000
     32      -9.2341      1.00000
     33      -9.2308      1.00000
     34      -8.6555      1.00000
     35      -8.6099      1.00000
     36      -8.5131      1.00000
     37      -8.4369      1.00000
     38      -8.0620      1.00000
     39      -7.9635      1.00000
     40      -7.9005      1.00000
     41      -7.8430      1.00000
     42      -7.7997      1.00000
     43      -7.2313      1.00000
     44      -6.0994      1.00000
     45      -5.7722      1.00000
     46      -5.7225      1.00000
     47      -4.9533      1.00000
     48      -4.4794      1.00000
     49      -4.4438      1.00000
     50      -3.0906      0.00000
     51      -3.0230      0.00000
     52      -1.1441      0.00000
     53      -1.0547      0.00000
     54      -0.8396      0.00000
     55      -0.4220      0.00000
     56       0.2867      0.00000
     57       0.7014      0.00000
     58       0.7164      0.00000
     59       1.1983      0.00000
     60       1.5286      0.00000
     61       1.6556      0.00000

 k-point   126 :       0.1316    0.1316    0.0000
  band No.  band energies     occupation 
      1     -31.9370      1.00000
      2     -29.7652      1.00000
      3     -29.7603      1.00000
      4     -22.0020      1.00000
      5     -20.2850      1.00000
      6     -20.2431      1.00000
      7     -19.2899      1.00000
      8     -19.2876      1.00000
      9     -18.9687      1.00000
     10     -18.0355      1.00000
     11     -17.3529      1.00000
     12     -17.3180      1.00000
     13     -16.7701      1.00000
     14     -16.4701      1.00000
     15     -16.4333      1.00000
     16     -15.2731      1.00000
     17     -14.3769      1.00000
     18     -13.8265      1.00000
     19     -13.7107      1.00000
     20     -13.4619      1.00000
     21     -13.4581      1.00000
     22     -13.2898      1.00000
     23     -13.0588      1.00000
     24     -12.2157      1.00000
     25     -11.6679      1.00000
     26     -11.5685      1.00000
     27     -10.1595      1.00000
     28     -10.1264      1.00000
     29     -10.1007      1.00000
     30     -10.0190      1.00000
     31     -10.0026      1.00000
     32      -9.2341      1.00000
     33      -9.2308      1.00000
     34      -8.6793      1.00000
     35      -8.6529      1.00000
     36      -8.5633      1.00000
     37      -8.4432      1.00000
     38      -8.0386      1.00000
     39      -7.9082      1.00000
     40      -7.8841      1.00000
     41      -7.8465      1.00000
     42      -7.7841      1.00000
     43      -7.1135      1.00000
     44      -6.1591      1.00000
     45      -5.7507      1.00000
     46      -5.6781      1.00000
     47      -5.0147      1.00000
     48      -4.6148      1.00000
     49      -4.5866      1.00000
     50      -2.9348      0.00000
     51      -2.8579      0.00000
     52      -1.2077      0.00000
     53      -1.0866      0.00000
     54      -0.7630      0.00000
     55      -0.3205      0.00000
     56       0.3262      0.00000
     57       0.4332      0.00000
     58       0.7495      0.00000
     59       1.2258      0.00000
     60       1.4722      0.00000
     61       1.5665      0.00000

 k-point   127 :       0.1579    0.1579    0.0000
  band No.  band energies     occupation 
      1     -31.9370      1.00000
      2     -29.7652      1.00000
      3     -29.7603      1.00000
      4     -22.0002      1.00000
      5     -20.3050      1.00000
      6     -20.2553      1.00000
      7     -19.2702      1.00000
      8     -19.2547      1.00000
      9     -18.9040      1.00000
     10     -18.1152      1.00000
     11     -17.4396      1.00000
     12     -17.3898      1.00000
     13     -16.7700      1.00000
     14     -16.3837      1.00000
     15     -16.3344      1.00000
     16     -15.1539      1.00000
     17     -14.5288      1.00000
     18     -13.8625      1.00000
     19     -13.7107      1.00000
     20     -13.4620      1.00000
     21     -13.4581      1.00000
     22     -13.3692      1.00000
     23     -12.9844      1.00000
     24     -12.2112      1.00000
     25     -11.6462      1.00000
     26     -11.5262      1.00000
     27     -10.1572      1.00000
     28     -10.1274      1.00000
     29     -10.0916      1.00000
     30     -10.0381      1.00000
     31     -10.0169      1.00000
     32      -9.2342      1.00000
     33      -9.2308      1.00000
     34      -8.7399      1.00000
     35      -8.6544      1.00000
     36      -8.6110      1.00000
     37      -8.4455      1.00000
     38      -8.0197      1.00000
     39      -7.9135      1.00000
     40      -7.8590      1.00000
     41      -7.7968      1.00000
     42      -7.7663      1.00000
     43      -6.9921      1.00000
     44      -6.2204      1.00000
     45      -5.7254      1.00000
     46      -5.6295      1.00000
     47      -5.0828      1.00000
     48      -4.7411      1.00000
     49      -4.7298      1.00000
     50      -2.7756      0.00000
     51      -2.6957      0.00000
     52      -1.2728      0.00000
     53      -1.1237      0.00000
     54      -0.6781      0.00000
     55      -0.2174      0.00000
     56       0.1640      0.00000
     57       0.3738      0.00000
     58       0.7873      0.00000
     59       1.2446      0.00000
     60       1.4256      0.00000
     61       1.4861      0.00000

 k-point   128 :       0.1842    0.1842    0.0000
  band No.  band energies     occupation 
      1     -31.9370      1.00000
      2     -29.7652      1.00000
      3     -29.7603      1.00000
      4     -21.9984      1.00000
      5     -20.3225      1.00000
      6     -20.2682      1.00000
      7     -19.2525      1.00000
      8     -19.2166      1.00000
      9     -18.8392      1.00000
     10     -18.1876      1.00000
     11     -17.5257      1.00000
     12     -17.4583      1.00000
     13     -16.7700      1.00000
     14     -16.2984      1.00000
     15     -16.2355      1.00000
     16     -15.0349      1.00000
     17     -14.6722      1.00000
     18     -13.9032      1.00000
     19     -13.7107      1.00000
     20     -13.4644      1.00000
     21     -13.4602      1.00000
     22     -13.4578      1.00000
     23     -12.9117      1.00000
     24     -12.2068      1.00000
     25     -11.6222      1.00000
     26     -11.4901      1.00000
     27     -10.1555      1.00000
     28     -10.1291      1.00000
     29     -10.0831      1.00000
     30     -10.0559      1.00000
     31     -10.0299      1.00000
     32      -9.2342      1.00000
     33      -9.2308      1.00000
     34      -8.7929      1.00000
     35      -8.6603      1.00000
     36      -8.6505      1.00000
     37      -8.4462      1.00000
     38      -8.0038      1.00000
     39      -7.9198      1.00000
     40      -7.8653      1.00000
     41      -7.7488      1.00000
     42      -7.7112      1.00000
     43      -6.8851      1.00000
     44      -6.2671      1.00000
     45      -5.6970      1.00000
     46      -5.5796      1.00000
     47      -5.1541      1.00000
     48      -4.8740      1.00000
     49      -4.8552      1.00000
     50      -2.6143      0.00000
     51      -2.5387      0.00000
     52      -1.3343      0.00000
     53      -1.1650      0.00000
     54      -0.5894      0.00000
     55      -0.2401      0.00000
     56       0.0564      0.00000
     57       0.4290      0.00000
     58       0.8275      0.00000
     59       1.2376      0.00000
     60       1.3659      0.00000
     61       1.4609      0.00000

 k-point   129 :       0.2105    0.2105    0.0000
  band No.  band energies     occupation 
      1     -31.9370      1.00000
      2     -29.7652      1.00000
      3     -29.7603      1.00000
      4     -21.9968      1.00000
      5     -20.3361      1.00000
      6     -20.2814      1.00000
      7     -19.2360      1.00000
      8     -19.1743      1.00000
      9     -18.7874      1.00000
     10     -18.2390      1.00000
     11     -17.6108      1.00000
     12     -17.5231      1.00000
     13     -16.7700      1.00000
     14     -16.2147      1.00000
     15     -16.1374      1.00000
     16     -14.9757      1.00000
     17     -14.7493      1.00000
     18     -13.9476      1.00000
     19     -13.7107      1.00000
     20     -13.5616      1.00000
     21     -13.4619      1.00000
     22     -13.4581      1.00000
     23     -12.8464      1.00000
     24     -12.2028      1.00000
     25     -11.5968      1.00000
     26     -11.4630      1.00000
     27     -10.1544      1.00000
     28     -10.1314      1.00000
     29     -10.0799      1.00000
     30     -10.0687      1.00000
     31     -10.0388      1.00000
     32      -9.2343      1.00000
     33      -9.2308      1.00000
     34      -8.8352      1.00000
     35      -8.6991      1.00000
     36      -8.6537      1.00000
     37      -8.4461      1.00000
     38      -7.9899      1.00000
     39      -7.9259      1.00000
     40      -7.8727      1.00000
     41      -7.7304      1.00000
     42      -7.6227      1.00000
     43      -6.8238      1.00000
     44      -6.2682      1.00000
     45      -5.6662      1.00000
     46      -5.5320      1.00000
     47      -5.2251      1.00000
     48      -5.0161      1.00000
     49      -4.9589      1.00000
     50      -2.4518      0.00000
     51      -2.3880      0.00000
     52      -1.3873      0.00000
     53      -1.2093      0.00000
     54      -0.5029      0.00000
     55      -0.4710      0.00000
     56       0.1697      0.00000
     57       0.4913      0.00000
     58       0.8654      0.00000
     59       1.2097      0.00000
     60       1.2923      0.00000
     61       1.4951      0.00000

 k-point   130 :       0.2368    0.2368    0.0000
  band No.  band energies     occupation 
      1     -31.9370      1.00000
      2     -29.7652      1.00000
      3     -29.7603      1.00000
      4     -21.9954      1.00000
      5     -20.3451      1.00000
      6     -20.2946      1.00000
      7     -19.2204      1.00000
      8     -19.1284      1.00000
      9     -18.7664      1.00000
     10     -18.2512      1.00000
     11     -17.6951      1.00000
     12     -17.5837      1.00000
     13     -16.7700      1.00000
     14     -16.1329      1.00000
     15     -16.0413      1.00000
     16     -15.0717      1.00000
     17     -14.6651      1.00000
     18     -13.9949      1.00000
     19     -13.7108      1.00000
     20     -13.6641      1.00000
     21     -13.4620      1.00000
     22     -13.4582      1.00000
     23     -12.7908      1.00000
     24     -12.1994      1.00000
     25     -11.5705      1.00000
     26     -11.4469      1.00000
     27     -10.1535      1.00000
     28     -10.1342      1.00000
     29     -10.0871      1.00000
     30     -10.0737      1.00000
     31     -10.0406      1.00000
     32      -9.2344      1.00000
     33      -9.2308      1.00000
     34      -8.8653      1.00000
     35      -8.7374      1.00000
     36      -8.6540      1.00000
     37      -8.4456      1.00000
     38      -7.9776      1.00000
     39      -7.9311      1.00000
     40      -7.8800      1.00000
     41      -7.7136      1.00000
     42      -7.5309      1.00000
     43      -6.8342      1.00000
     44      -6.1973      1.00000
     45      -5.6337      1.00000
     46      -5.4908      1.00000
     47      -5.2916      1.00000
     48      -5.1570      1.00000
     49      -5.0505      1.00000
     50      -2.2887      0.00000
     51      -2.2447      0.00000
     52      -1.4274      0.00000
     53      -1.2553      0.00000
     54      -0.7416      0.00000
     55      -0.4204      0.00000
     56       0.3304      0.00000
     57       0.5595      0.00000
     58       0.8891      0.00000
     59       1.1709      0.00000
     60       1.2409      0.00000
     61       1.5426      0.00000

 k-point   131 :       0.2632    0.2632    0.0000
  band No.  band energies     occupation 
      1     -31.9370      1.00000
      2     -29.7652      1.00000
      3     -29.7603      1.00000
      4     -21.9944      1.00000
      5     -20.3493      1.00000
      6     -20.3074      1.00000
      7     -19.2062      1.00000
      8     -19.0791      1.00000
      9     -18.7856      1.00000
     10     -18.2146      1.00000
     11     -17.7782      1.00000
     12     -17.6388      1.00000
     13     -16.7700      1.00000
     14     -16.0537      1.00000
     15     -15.9505      1.00000
     16     -15.2156      1.00000
     17     -14.5261      1.00000
     18     -14.0443      1.00000
     19     -13.7685      1.00000
     20     -13.7104      1.00000
     21     -13.4620      1.00000
     22     -13.4582      1.00000
     23     -12.7463      1.00000
     24     -12.1967      1.00000
     25     -11.5441      1.00000
     26     -11.4425      1.00000
     27     -10.1529      1.00000
     28     -10.1371      1.00000
     29     -10.0948      1.00000
     30     -10.0783      1.00000
     31     -10.0377      1.00000
     32      -9.2344      1.00000
     33      -9.2309      1.00000
     34      -8.8824      1.00000
     35      -8.7721      1.00000
     36      -8.6541      1.00000
     37      -8.4451      1.00000
     38      -7.9671      1.00000
     39      -7.9351      1.00000
     40      -7.8868      1.00000
     41      -7.6993      1.00000
     42      -7.4362      1.00000
     43      -6.9008      1.00000
     44      -6.0698      1.00000
     45      -5.6006      1.00000
     46      -5.4630      1.00000
     47      -5.3464      1.00000
     48      -5.2964      1.00000
     49      -5.1294      1.00000
     50      -2.1260      0.00000
     51      -2.1098      0.00000
     52      -1.4512      0.00000
     53      -1.3018      0.00000
     54      -1.0154      0.00000
     55      -0.3511      0.00000
     56       0.5041      0.00000
     57       0.6317      0.00000
     58       0.8918      0.00000
     59       1.1153      0.00000
     60       1.2408      0.00000
     61       1.5360      0.00000

 k-point   132 :       0.2895    0.2895    0.0000
  band No.  band energies     occupation 
      1     -31.9370      1.00000
      2     -29.7652      1.00000
      3     -29.7603      1.00000
      4     -21.9937      1.00000
      5     -20.3486      1.00000
      6     -20.3195      1.00000
      7     -19.1941      1.00000
      8     -19.0270      1.00000
      9     -18.8340      1.00000
     10     -18.1406      1.00000
     11     -17.8601      1.00000
     12     -17.6865      1.00000
     13     -16.7700      1.00000
     14     -15.9775      1.00000
     15     -15.8734      1.00000
     16     -15.3556      1.00000
     17     -14.3787      1.00000
     18     -14.0945      1.00000
     19     -13.8706      1.00000
     20     -13.7106      1.00000
     21     -13.4620      1.00000
     22     -13.4582      1.00000
     23     -12.7143      1.00000
     24     -12.1950      1.00000
     25     -11.5183      1.00000
     26     -11.4490      1.00000
     27     -10.1523      1.00000
     28     -10.1393      1.00000
     29     -10.1002      1.00000
     30     -10.0818      1.00000
     31     -10.0345      1.00000
     32      -9.2345      1.00000
     33      -9.2309      1.00000
     34      -8.8868      1.00000
     35      -8.8026      1.00000
     36      -8.6541      1.00000
     37      -8.4447      1.00000
     38      -7.9588      1.00000
     39      -7.9377      1.00000
     40      -7.8923      1.00000
     41      -7.6888      1.00000
     42      -7.3386      1.00000
     43      -6.9947      1.00000
     44      -5.9152      1.00000
     45      -5.5679      1.00000
     46      -5.4641      1.00000
     47      -5.4339      1.00000
     48      -5.3740      1.00000
     49      -5.1940      1.00000
     50      -1.9849      0.00000
     51      -1.9641      0.00000
     52      -1.4559      0.00000
     53      -1.3477      0.00000
     54      -1.2869      0.00000
     55      -0.2992      0.00000
     56       0.7015      0.00000
     57       0.7538      0.00000
     58       0.8758      0.00000
     59       1.0602      0.00000
     60       1.2792      0.00000
     61       1.5019      0.00000

 k-point   133 :       0.3158    0.3158    0.0000
  band No.  band energies     occupation 
      1     -31.9370      1.00000
      2     -29.7652      1.00000
      3     -29.7603      1.00000
      4     -21.9933      1.00000
      5     -20.3434      1.00000
      6     -20.3307      1.00000
      7     -19.1858      1.00000
      8     -18.9724      1.00000
      9     -18.8940      1.00000
     10     -18.0498      1.00000
     11     -17.9406      1.00000
     12     -17.7212      1.00000
     13     -16.7700      1.00000
     14     -15.9053      1.00000
     15     -15.8366      1.00000
     16     -15.4583      1.00000
     17     -14.2393      1.00000
     18     -14.1447      1.00000
     19     -13.9618      1.00000
     20     -13.7106      1.00000
     21     -13.4620      1.00000
     22     -13.4583      1.00000
     23     -12.6964      1.00000
     24     -12.1941      1.00000
     25     -11.4937      1.00000
     26     -11.4645      1.00000
     27     -10.1520      1.00000
     28     -10.1404      1.00000
     29     -10.1033      1.00000
     30     -10.0830      1.00000
     31     -10.0329      1.00000
     32      -9.2345      1.00000
     33      -9.2309      1.00000
     34      -8.8807      1.00000
     35      -8.8268      1.00000
     36      -8.6541      1.00000
     37      -8.4446      1.00000
     38      -7.9536      1.00000
     39      -7.9389      1.00000
     40      -7.8955      1.00000
     41      -7.6829      1.00000
     42      -7.2383      1.00000
     43      -7.0984      1.00000
     44      -5.7555      1.00000
     45      -5.5706      1.00000
     46      -5.5360      1.00000
     47      -5.4918      1.00000
     48      -5.3749      1.00000
     49      -5.2387      1.00000
     50      -1.8737      0.00000
     51      -1.8046      0.00000
     52      -1.5500      0.00000
     53      -1.4402      0.00000
     54      -1.3909      0.00000
     55      -0.2694      0.00000
     56       0.7625      0.00000
     57       0.8500      0.00000
     58       0.9288      0.00000
     59       1.0216      0.00000
     60       1.3186      0.00000
     61       1.4700      0.00000

 k-point   134 :       0.3421    0.3421    0.0000
  band No.  band energies     occupation 
      1     -31.9370      1.00000
      2     -29.7652      1.00000
      3     -29.7603      1.00000
      4     -21.9933      1.00000
      5     -20.3410      1.00000
      6     -20.3339      1.00000
      7     -19.1843      1.00000
      8     -18.9522      1.00000
      9     -18.9157      1.00000
     10     -18.0195      1.00000
     11     -17.9681      1.00000
     12     -17.7272      1.00000
     13     -16.7700      1.00000
     14     -15.8859      1.00000
     15     -15.8379      1.00000
     16     -15.4755      1.00000
     17     -14.1935      1.00000
     18     -14.1708      1.00000
     19     -13.9817      1.00000
     20     -13.7106      1.00000
     21     -13.4620      1.00000
     22     -13.4583      1.00000
     23     -12.6937      1.00000
     24     -12.1940      1.00000
     25     -11.4865      1.00000
     26     -11.4705      1.00000
     27     -10.1523      1.00000
     28     -10.1402      1.00000
     29     -10.1044      1.00000
     30     -10.0820      1.00000
     31     -10.0331      1.00000
     32      -9.2346      1.00000
     33      -9.2309      1.00000
     34      -8.8762      1.00000
     35      -8.8338      1.00000
     36      -8.6540      1.00000
     37      -8.4450      1.00000
     38      -7.9528      1.00000
     39      -7.9392      1.00000
     40      -7.8953      1.00000
     41      -7.6821      1.00000
     42      -7.2024      1.00000
     43      -7.1352      1.00000
     44      -5.7041      1.00000
     45      -5.6169      1.00000
     46      -5.5253      1.00000
     47      -5.5033      1.00000
     48      -5.3740      1.00000
     49      -5.2462      1.00000
     50      -1.8555      0.00000
     51      -1.7230      0.00000
     52      -1.6486      0.00000
     53      -1.4318      0.00000
     54      -1.4032      0.00000
     55      -0.2649      0.00000
     56       0.7808      0.00000
     57       0.8367      0.00000
     58       1.0016      0.00000
     59       1.0291      0.00000
     60       1.3257      0.00000
     61       1.4681      0.00000

 k-point   135 :       0.3684    0.3684    0.0000
  band No.  band energies     occupation 
      1     -31.9369      1.00000
      2     -29.7652      1.00000
      3     -29.7603      1.00000
      4     -21.9935      1.00000
      5     -20.3496      1.00000
      6     -20.3219      1.00000
      7     -19.1941      1.00000
      8     -18.9977      1.00000
      9     -18.8575      1.00000
     10     -18.0962      1.00000
     11     -17.9302      1.00000
     12     -17.6756      1.00000
     13     -16.7699      1.00000
     14     -16.0052      1.00000
     15     -15.7768      1.00000
     16     -15.4220      1.00000
     17     -14.2395      1.00000
     18     -14.2330      1.00000
     19     -13.8721      1.00000
     20     -13.7106      1.00000
     21     -13.4619      1.00000
     22     -13.4583      1.00000
     23     -12.7074      1.00000
     24     -12.1944      1.00000
     25     -11.5108      1.00000
     26     -11.4502      1.00000
     27     -10.1530      1.00000
     28     -10.1392      1.00000
     29     -10.1039      1.00000
     30     -10.0796      1.00000
     31     -10.0348      1.00000
     32      -9.2346      1.00000
     33      -9.2309      1.00000
     34      -8.8877      1.00000
     35      -8.8110      1.00000
     36      -8.6538      1.00000
     37      -8.4463      1.00000
     38      -7.9571      1.00000
     39      -7.9397      1.00000
     40      -7.8908      1.00000
     41      -7.6865      1.00000
     42      -7.2997      1.00000
     43      -7.0295      1.00000
     44      -5.8359      1.00000
     45      -5.5467      1.00000
     46      -5.5386      1.00000
     47      -5.4781      1.00000
     48      -5.3804      1.00000
     49      -5.1824      1.00000
     50      -2.0789      0.00000
     51      -1.6551      0.00000
     52      -1.4988      0.00000
     53      -1.4678      0.00000
     54      -1.3474      0.00000
     55      -0.2875      0.00000
     56       0.7603      0.00000
     57       0.8199      0.00000
     58       0.8471      0.00000
     59       1.0481      0.00000
     60       1.3217      0.00000
     61       1.4360      0.00000

 k-point   136 :       0.3947    0.3947    0.0000
  band No.  band energies     occupation 
      1     -31.9370      1.00000
      2     -29.7652      1.00000
      3     -29.7603      1.00000
      4     -21.9938      1.00000
      5     -20.3569      1.00000
      6     -20.3083      1.00000
      7     -19.2172      1.00000
      8     -19.0249      1.00000
      9     -18.7985      1.00000
     10     -18.1703      1.00000
     11     -17.9323      1.00000
     12     -17.5739      1.00000
     13     -16.7699      1.00000
     14     -16.1480      1.00000
     15     -15.7232      1.00000
     16     -15.3436      1.00000
     17     -14.3254      1.00000
     18     -14.2804      1.00000
     19     -13.7356      1.00000
     20     -13.7103      1.00000
     21     -13.4619      1.00000
     22     -13.4583      1.00000
     23     -12.7372      1.00000
     24     -12.1952      1.00000
     25     -11.5348      1.00000
     26     -11.4327      1.00000
     27     -10.1539      1.00000
     28     -10.1380      1.00000
     29     -10.1023      1.00000
     30     -10.0766      1.00000
     31     -10.0371      1.00000
     32      -9.2346      1.00000
     33      -9.2309      1.00000
     34      -8.9025      1.00000
     35      -8.7742      1.00000
     36      -8.6534      1.00000
     37      -8.4488      1.00000
     38      -7.9676      1.00000
     39      -7.9404      1.00000
     40      -7.8822      1.00000
     41      -7.6957      1.00000
     42      -7.3850      1.00000
     43      -6.9212      1.00000
     44      -5.9656      1.00000
     45      -5.5562      1.00000
     46      -5.5246      1.00000
     47      -5.4553      1.00000
     48      -5.3951      1.00000
     49      -5.0531      1.00000
     50      -2.3077      0.00000
     51      -1.5787      0.00000
     52      -1.4987      0.00000
     53      -1.3582      0.00000
     54      -1.2746      0.00000
     55      -0.3346      0.00000
     56       0.6189      0.00000
     57       0.7359      0.00000
     58       0.8008      0.00000
     59       1.0851      0.00000
     60       1.3353      0.00000
     61       1.3951      0.00000

 k-point   137 :       0.4211    0.4211    0.0000
  band No.  band energies     occupation 
      1     -31.9370      1.00000
      2     -29.7652      1.00000
      3     -29.7603      1.00000
      4     -21.9942      1.00000
      5     -20.3627      1.00000
      6     -20.2947      1.00000
      7     -19.2480      1.00000
      8     -19.0366      1.00000
      9     -18.7401      1.00000
     10     -18.2403      1.00000
     11     -17.9465      1.00000
     12     -17.4548      1.00000
     13     -16.7699      1.00000
     14     -16.2924      1.00000
     15     -15.6788      1.00000
     16     -15.2609      1.00000
     17     -14.4170      1.00000
     18     -14.3154      1.00000
     19     -13.7107      1.00000
     20     -13.6028      1.00000
     21     -13.4618      1.00000
     22     -13.4583      1.00000
     23     -12.7814      1.00000
     24     -12.1962      1.00000
     25     -11.5556      1.00000
     26     -11.4186      1.00000
     27     -10.1549      1.00000
     28     -10.1368      1.00000
     29     -10.1003      1.00000
     30     -10.0739      1.00000
     31     -10.0391      1.00000
     32      -9.2347      1.00000
     33      -9.2309      1.00000
     34      -8.9150      1.00000
     35      -8.7329      1.00000
     36      -8.6525      1.00000
     37      -8.4529      1.00000
     38      -7.9836      1.00000
     39      -7.9410      1.00000
     40      -7.8706      1.00000
     41      -7.7085      1.00000
     42      -7.4536      1.00000
     43      -6.8104      1.00000
     44      -6.0931      1.00000
     45      -5.5558      1.00000
     46      -5.5330      1.00000
     47      -5.4370      1.00000
     48      -5.4164      1.00000
     49      -4.9058      1.00000
     50      -2.5135      0.00000
     51      -1.5244      0.00000
     52      -1.5148      0.00000
     53      -1.2324      0.00000
     54      -1.1899      0.00000
     55      -0.4015      0.00000
     56       0.4883      0.00000
     57       0.7137      0.00000
     58       0.7779      0.00000
     59       1.1018      0.00000
     60       1.3649      0.00000
     61       1.3908      0.00000

 k-point   138 :       0.4474    0.4474    0.0000
  band No.  band energies     occupation 
      1     -31.9370      1.00000
      2     -29.7652      1.00000
      3     -29.7603      1.00000
      4     -21.9945      1.00000
      5     -20.3669      1.00000
      6     -20.2831      1.00000
      7     -19.2768      1.00000
      8     -19.0402      1.00000
      9     -18.6852      1.00000
     10     -18.3034      1.00000
     11     -17.9602      1.00000
     12     -17.3383      1.00000
     13     -16.7699      1.00000
     14     -16.4253      1.00000
     15     -15.6455      1.00000
     16     -15.1846      1.00000
     17     -14.4987      1.00000
     18     -14.3421      1.00000
     19     -13.7106      1.00000
     20     -13.4862      1.00000
     21     -13.4616      1.00000
     22     -13.4578      1.00000
     23     -12.8342      1.00000
     24     -12.1970      1.00000
     25     -11.5714      1.00000
     26     -11.4082      1.00000
     27     -10.1556      1.00000
     28     -10.1358      1.00000
     29     -10.0985      1.00000
     30     -10.0723      1.00000
     31     -10.0403      1.00000
     32      -9.2347      1.00000
     33      -9.2309      1.00000
     34      -8.9241      1.00000
     35      -8.6948      1.00000
     36      -8.6500      1.00000
     37      -8.4587      1.00000
     38      -8.0023      1.00000
     39      -7.9415      1.00000
     40      -7.8578      1.00000
     41      -7.7225      1.00000
     42      -7.5028      1.00000
     43      -6.6971      1.00000
     44      -6.2183      1.00000
     45      -5.5483      1.00000
     46      -5.5418      1.00000
     47      -5.4441      1.00000
     48      -5.4221      1.00000
     49      -4.7733      1.00000
     50      -2.6823      0.00000
     51      -1.5421      0.00000
     52      -1.4685      0.00000
     53      -1.1293      0.00000
     54      -1.1017      0.00000
     55      -0.4785      0.00000
     56       0.3853      0.00000
     57       0.6974      0.00000
     58       0.7602      0.00000
     59       1.1028      0.00000
     60       1.3451      0.00000
     61       1.4693      0.00000

 k-point   139 :       0.4737    0.4737    0.0000
  band No.  band energies     occupation 
      1     -31.9370      1.00000
      2     -29.7652      1.00000
      3     -29.7603      1.00000
      4     -21.9948      1.00000
      5     -20.3694      1.00000
      6     -20.2753      1.00000
      7     -19.2966      1.00000
      8     -19.0407      1.00000
      9     -18.6409      1.00000
     10     -18.3526      1.00000
     11     -17.9694      1.00000
     12     -17.2450      1.00000
     13     -16.7699      1.00000
     14     -16.5281      1.00000
     15     -15.6246      1.00000
     16     -15.1272      1.00000
     17     -14.5591      1.00000
     18     -14.3590      1.00000
     19     -13.7106      1.00000
     20     -13.4620      1.00000
     21     -13.4587      1.00000
     22     -13.3970      1.00000
     23     -12.8829      1.00000
     24     -12.1976      1.00000
     25     -11.5812      1.00000
     26     -11.4019      1.00000
     27     -10.1562      1.00000
     28     -10.1351      1.00000
     29     -10.0972      1.00000
     30     -10.0717      1.00000
     31     -10.0408      1.00000
     32      -9.2347      1.00000
     33      -9.2309      1.00000
     34      -8.9297      1.00000
     35      -8.6714      1.00000
     36      -8.6424      1.00000
     37      -8.4648      1.00000
     38      -8.0179      1.00000
     39      -7.9418      1.00000
     40      -7.8469      1.00000
     41      -7.7345      1.00000
     42      -7.5318      1.00000
     43      -6.5815      1.00000
     44      -6.3411      1.00000
     45      -5.5542      1.00000
     46      -5.5259      1.00000
     47      -5.4723      1.00000
     48      -5.4140      1.00000
     49      -4.6797      1.00000
     50      -2.7964      0.00000
     51      -1.5532      0.00000
     52      -1.4398      0.00000
     53      -1.0596      0.00000
     54      -1.0262      0.00000
     55      -0.5483      0.00000
     56       0.3143      0.00000
     57       0.6872      0.00000
     58       0.7497      0.00000
     59       1.0996      0.00000
     60       1.3321      0.00000
     61       1.5519      0.00000

 k-point   140 :       0.5000    0.5000    0.0000
  band No.  band energies     occupation 
      1     -31.9370      1.00000
      2     -29.7652      1.00000
      3     -29.7603      1.00000
      4     -21.9948      1.00000
      5     -20.3703      1.00000
      6     -20.2725      1.00000
      7     -19.3036      1.00000
      8     -19.0407      1.00000
      9     -18.6223      1.00000
     10     -18.3729      1.00000
     11     -17.9727      1.00000
     12     -17.2067      1.00000
     13     -16.7699      1.00000
     14     -16.5694      1.00000
     15     -15.6176      1.00000
     16     -15.1050      1.00000
     17     -14.5824      1.00000
     18     -14.3647      1.00000
     19     -13.7106      1.00000
     20     -13.4620      1.00000
     21     -13.4586      1.00000
     22     -13.3626      1.00000
     23     -12.9044      1.00000
     24     -12.1978      1.00000
     25     -11.5845      1.00000
     26     -11.3997      1.00000
     27     -10.1564      1.00000
     28     -10.1348      1.00000
     29     -10.0967      1.00000
     30     -10.0716      1.00000
     31     -10.0408      1.00000
     32      -9.2347      1.00000
     33      -9.2309      1.00000
     34      -8.9316      1.00000
     35      -8.6660      1.00000
     36      -8.6358      1.00000
     37      -8.4678      1.00000
     38      -8.0240      1.00000
     39      -7.9419      1.00000
     40      -7.8423      1.00000
     41      -7.7395      1.00000
     42      -7.5413      1.00000
     43      -6.4750      1.00000
     44      -6.4500      1.00000
     45      -5.5571      1.00000
     46      -5.5057      1.00000
     47      -5.4960      1.00000
     48      -5.4112      1.00000
     49      -4.6454      1.00000
     50      -2.8372      0.00000
     51      -1.5570      0.00000
     52      -1.4301      0.00000
     53      -1.0347      0.00000
     54      -0.9934      0.00000
     55      -0.5793      0.00000
     56       0.2908      0.00000
     57       0.6844      0.00000
     58       0.7454      0.00000
     59       1.0980      0.00000
     60       1.3295      0.00000
     61       1.6112      0.00000


--------------------------------------------------------------------------------------------------------


 soft charge-density along one line, spin component           1
         0         1         2         3         4         5         6         7         8         9
 total charge-density along one line
 
 soft charge-density along one line, spin component           2
         0         1         2         3         4         5         6         7         8         9
 total charge-density along one line
 
 pseudopotential strength for first ion, spin component:           1
 10.298  13.697   0.000  -0.000   0.002  -0.000   0.000  -0.006
 13.697  18.216   0.000  -0.000   0.003  -0.000   0.000  -0.008
  0.000   0.000  -4.419  -0.000   0.000   8.644   0.000  -0.000
 -0.000  -0.000  -0.000  -4.410   0.000   0.000   8.632  -0.000
  0.002   0.003   0.000   0.000  -4.423  -0.000  -0.000   8.651
 -0.000  -0.000   8.644   0.000  -0.000 -19.052  -0.000   0.000
  0.000   0.000   0.000   8.632  -0.000  -0.000 -19.036   0.000
 -0.006  -0.008  -0.000  -0.000   8.651   0.000   0.000 -19.065
 pseudopotential strength for first ion, spin component:           2
 10.298  13.697   0.000  -0.000   0.002  -0.000   0.000  -0.006
 13.697  18.216   0.000  -0.000   0.003  -0.000   0.000  -0.008
  0.000   0.000  -4.419  -0.000   0.000   8.644   0.000  -0.000
 -0.000  -0.000  -0.000  -4.410   0.000   0.000   8.632  -0.000
  0.002   0.003   0.000   0.000  -4.423  -0.000  -0.000   8.651
 -0.000  -0.000   8.644   0.000  -0.000 -19.052  -0.000   0.000
  0.000   0.000   0.000   8.632  -0.000  -0.000 -19.036   0.000
 -0.006  -0.008  -0.000  -0.000   8.651   0.000   0.000 -19.065
 total augmentation occupancy for first ion, spin component:           1
  2.000   0.000   0.000   0.000   0.000   0.000   0.000   0.000
  0.000   0.000   0.000   0.000   0.000   0.000   0.000   0.000
  0.000   0.000   0.667   0.000   0.000   0.000   0.000   0.000
  0.000   0.000   0.000   0.667   0.000   0.000   0.000   0.000
  0.000   0.000   0.000   0.000   0.667   0.000   0.000   0.000
  0.000   0.000   0.000   0.000   0.000   0.000   0.000   0.000
  0.000   0.000   0.000   0.000   0.000   0.000   0.000   0.000
  0.000   0.000   0.000   0.000   0.000   0.000   0.000   0.000
 total augmentation occupancy for first ion, spin component:           2
  0.000   0.000   0.000   0.000   0.000   0.000   0.000   0.000
  0.000   0.000   0.000   0.000   0.000   0.000   0.000   0.000
  0.000   0.000   0.000   0.000   0.000   0.000   0.000   0.000
  0.000   0.000   0.000   0.000   0.000   0.000   0.000   0.000
  0.000   0.000   0.000   0.000   0.000   0.000   0.000   0.000
  0.000   0.000   0.000   0.000   0.000   0.000   0.000   0.000
  0.000   0.000   0.000   0.000   0.000   0.000   0.000   0.000
  0.000   0.000   0.000   0.000   0.000   0.000   0.000   0.000


------------------------ aborting loop because EDIFF is reached ----------------------------------------





 total charge

# of ion       s       p       d       tot
------------------------------------------
    1        0.857   1.766   0.000   2.622
    2        0.857   1.766   0.000   2.622
    3        0.857   1.766   0.000   2.623
    4        0.857   1.766   0.000   2.623
    5        0.857   1.765   0.000   2.622
    6        0.857   1.765   0.000   2.623
    7        0.900   1.770   0.000   2.670
    8        0.900   1.770   0.000   2.670
    9        0.900   1.769   0.000   2.669
   10        0.900   1.771   0.000   2.671
   11        0.900   1.769   0.000   2.669
   12        0.900   1.768   0.000   2.668
   13        0.895   1.801   0.000   2.696
   14        0.895   1.801   0.000   2.696
   15        0.895   1.800   0.000   2.696
   16        0.895   1.801   0.000   2.697
   17        0.895   1.801   0.000   2.696
   18        0.895   1.800   0.000   2.695
   19        0.815   1.558   0.000   2.373
   20        0.654   0.045   0.000   0.699
   21        1.754   4.370   0.000   6.124
   22        1.754   4.370   0.000   6.123
   23        1.754   4.370   0.000   6.124
--------------------------------------------------
tot         22.644  46.726   0.000  69.370



 magnetization (x)

# of ion       s       p       d       tot
------------------------------------------
    1       -0.000  -0.000   0.000  -0.000
    2       -0.000  -0.000   0.000  -0.000
    3       -0.000  -0.000   0.000  -0.000
    4       -0.000   0.000   0.000  -0.000
    5       -0.000  -0.000   0.000  -0.000
    6       -0.000  -0.000   0.000  -0.000
    7        0.000   0.000   0.000   0.000
    8        0.000  -0.000   0.000   0.000
    9        0.000   0.000   0.000   0.000
   10        0.000   0.000   0.000   0.000
   11       -0.000   0.000   0.000   0.000
   12        0.000  -0.000   0.000  -0.000
   13        0.000   0.000   0.000   0.000
   14        0.000   0.000   0.000   0.000
   15        0.000  -0.000   0.000  -0.000
   16        0.000  -0.000   0.000   0.000
   17        0.000  -0.000   0.000  -0.000
   18        0.000   0.000   0.000   0.000
   19        0.000  -0.000   0.000  -0.000
   20       -0.000   0.000   0.000  -0.000
   21        0.000   0.000   0.000   0.000
   22        0.000  -0.000   0.000  -0.000
   23        0.000   0.000   0.000   0.000
--------------------------------------------------
tot          0.000   0.000   0.000   0.000
 
    CHARGE:  cpu time     23.5435: real time     23.6204
    FORLOC:  cpu time      0.2162: real time      0.2167
    FORNL :  cpu time     98.6584: real time     98.6695
    STRESS:  cpu time    276.2004: real time    276.7613
    FORCOR:  cpu time      3.3388: real time      3.3391
    FORHAR:  cpu time      0.5511: real time      0.5525
    OFIELD:  cpu time      0.0130: real time      0.0130

 ---------------------------------------------------------------------------------------------

         DFTD3 V3.0 Rev 1        
 DF pbe       
 parameters
 rs18     =    1.0000
 alpha6   =   14.0000
 alpha8   =   16.0000
 k1-k3    =   16.0000    1.3333   -4.0000
 Edisp (eV)   -0.59230

 E6    (eV) :    -0.3371
 E8    (eV) :    -0.2552
 % E8        : 43.08
    FORVDW:  cpu time      0.0392: real time      0.0392

  FORCE on cell =-STRESS in cart. coord.  units (eV):
  Direction    XX          YY          ZZ          XY          YZ          ZX
  --------------------------------------------------------------------------------------
  Alpha Z    29.59576    29.59576    29.59576
  Ewald   11890.07740 11847.66624-13463.14092    22.44440   -20.74811    66.66748
  Hartree 12462.58553 12422.36321-10556.29945    22.22978    -7.78592    74.82907
  E(xc)    -400.97953  -400.96918  -409.52025    -0.00859    -0.04055    -0.02178
  Local  -25443.42841-25360.66176 22727.66262   -45.13950    26.13117  -143.90714
  n-local  -180.96829  -180.96482  -187.40818     0.01141    -0.08986    -0.10019
  augment    44.84850    44.82791    49.22089     0.03848     0.31706     0.40724
  Kinetic  1600.64691  1599.95349  1810.36531    -0.02392     2.21449     2.14454
  Fock        0.00000     0.00000     0.00000     0.00000     0.00000     0.00000
  vdW        -0.60327    -0.59579    -0.25134    -0.00494    -0.00070    -0.00205
  -------------------------------------------------------------------------------------
  Total       1.77460     1.21506     0.22443    -0.45288    -0.00241     0.01718
  in kB       1.83509     1.25648     0.23209    -0.46832    -0.00249     0.01777
  external pressure =        1.11 kB  Pullay stress =        0.00 kB


 VOLUME and BASIS-vectors are now :
 -----------------------------------------------------------------------------
  energy-cutoff  :      500.00
  volume of cell :     1549.36
      direct lattice vectors                 reciprocal lattice vectors
     9.455272123  0.001866670  0.042435866     0.105796473  0.061079869 -0.010567932
    -4.730798848  8.191424966 -0.016149822     0.000001023  0.122068437 -0.005597451
     1.468980804  0.917501150 20.009007376    -0.000224376 -0.000031016  0.049995387

  length of vectors
     9.455367534  9.459395411 20.083826556     0.122618617  0.122196705  0.049995900


 FORCES acting on ions
    electron-ion (+dipol)            ewald-force                    non-local-force                 convergence-correction
 -----------------------------------------------------------------------------------------------
   -.496E+02 0.906E+01 0.658E+02   0.466E+02 -.930E+01 -.658E+02   0.188E+01 -.422E-01 -.187E-01   0.286E+00 0.752E-01 0.236E-02
   0.205E+02 -.488E+02 0.625E+02   -.193E+02 0.462E+02 -.624E+02   -.971E+00 0.160E+01 -.235E-01   -.723E-01 0.283E+00 0.591E-03
   0.302E+02 0.409E+02 0.660E+02   -.289E+02 -.387E+02 -.660E+02   -.102E+01 -.175E+01 -.264E-01   -.115E+00 -.189E+00 0.929E-03
   0.500E+02 0.667E+01 0.667E+02   -.471E+02 -.643E+01 -.667E+02   -.188E+01 0.593E-01 -.365E-01   -.283E+00 -.744E-01 -.199E-02
   -.314E+02 0.430E+02 0.626E+02   0.302E+02 -.404E+02 -.625E+02   0.986E+00 -.159E+01 -.293E-01   0.824E-01 -.277E+00 0.291E-02
   -.170E+02 -.472E+02 0.652E+02   0.157E+02 0.450E+02 -.652E+02   0.102E+01 0.176E+01 -.186E-01   0.111E+00 0.194E+00 0.517E-03
   -.263E+02 0.256E+02 0.823E+02   0.263E+02 -.255E+02 -.822E+02   0.168E+01 -.394E-01 -.880E-01   -.589E+00 0.140E-01 0.629E-02
   -.569E+01 -.365E+02 0.723E+02   0.565E+01 0.365E+02 -.723E+02   -.799E+00 0.147E+01 -.873E-02   0.304E+00 -.504E+00 -.373E-02
   0.322E+02 0.110E+02 0.819E+02   -.318E+02 -.105E+02 -.819E+02   -.825E+00 -.130E+01 -.567E-01   0.194E+00 0.336E+00 0.496E-02
   0.246E+02 0.226E+02 0.842E+02   -.246E+02 -.225E+02 -.841E+02   -.167E+01 -.448E-01 -.729E-01   0.586E+00 -.105E-01 0.125E-01
   -.339E+02 0.136E+02 0.735E+02   0.339E+02 -.136E+02 -.735E+02   0.923E+00 -.140E+01 0.180E-01   -.304E+00 0.503E+00 -.317E-02
   0.789E+01 -.357E+02 0.804E+02   -.812E+01 0.352E+02 -.803E+02   0.713E+00 0.139E+01 -.918E-01   -.196E+00 -.342E+00 0.321E-02
   -.468E+02 0.366E+02 0.955E+02   0.449E+02 -.366E+02 -.955E+02   0.409E+00 -.172E-01 -.399E-01   0.337E+00 0.479E-02 0.257E-02
   -.729E+01 -.591E+02 0.802E+02   0.819E+01 0.575E+02 -.802E+02   -.176E+00 0.379E+00 -.118E-01   -.164E+00 0.293E+00 -.168E-02
   0.537E+02 0.203E+02 0.936E+02   -.531E+02 -.193E+02 -.935E+02   -.287E+00 -.456E+00 -.695E-01   -.701E-01 -.121E+00 0.234E-02
   0.449E+02 0.362E+02 0.966E+02   -.431E+02 -.362E+02 -.965E+02   -.403E+00 -.179E-01 -.787E-01   -.340E+00 -.395E-02 0.303E-02
   -.548E+02 0.233E+02 0.803E+02   0.538E+02 -.217E+02 -.803E+02   0.209E+00 -.359E+00 -.354E-01   0.167E+00 -.294E+00 0.174E-02
   0.876E+01 -.587E+02 0.932E+02   -.939E+01 0.577E+02 -.932E+02   0.278E+00 0.467E+00 -.238E-01   0.681E-01 0.119E+00 0.274E-02
   -.205E+02 -.163E+02 -.376E+03   0.218E+02 0.174E+02 0.387E+03   -.134E+01 -.102E+01 -.107E+02   -.509E-02 0.116E-02 0.225E-01
   -.114E+02 -.896E+01 -.146E+03   0.122E+02 0.954E+01 0.152E+03   -.755E+00 -.583E+00 -.608E+01   -.577E-03 0.724E-04 0.237E-02
   0.535E+01 -.356E+03 -.263E+03   -.741E+01 0.404E+03 0.239E+03   0.208E+01 -.487E+02 0.240E+02   -.207E-01 0.239E-01 0.538E-01
   0.325E+03 0.183E+03 -.377E+03   -.371E+03 -.209E+03 0.366E+03   0.459E+02 0.262E+02 0.112E+02   -.369E-01 -.586E-02 0.446E-01
   -.303E+03 0.191E+03 -.281E+03   0.344E+03 -.219E+03 0.259E+03   -.411E+02 0.278E+02 0.220E+02   0.191E-01 -.160E-01 0.639E-01
 -----------------------------------------------------------------------------------------------
   -.467E+01 -.370E+01 -.400E+02   0.114E-12 -.568E-13 0.568E-13   0.476E+01 0.373E+01 0.397E+02   -.404E-01 0.101E-01 0.223E+00
 
 
 POSITION                                       TOTAL-FORCE (eV/Angst)
 -----------------------------------------------------------------------------------
     -2.98563      8.38410      6.40578        -0.758008     -0.209193     -0.001315
      9.05337      1.43519      6.46166         0.186330     -0.760860     -0.004684
      4.32211      7.14626      6.42755         0.168663      0.287988      0.005100
      3.60710      8.38702      6.42371         0.757420      0.229994      0.012186
      5.75352      7.14570      6.44747        -0.189655      0.752769     -0.007419
      1.03003      1.43271      6.42314        -0.161147     -0.294851     -0.002698
     -1.58963      8.38383      6.39846         1.126183     -0.001275     -0.008047
      8.35743      2.64583      6.46924        -0.549413      0.950754      0.000381
      3.62079      5.93938      6.41262        -0.289668     -0.510946     -0.007245
      2.21191      8.38580      6.39960        -1.117039     -0.002197     -0.012285
      6.45419      5.93756      6.45691         0.554476     -0.950384      0.008563
      1.72748      2.64244      6.42009         0.294818      0.525222     -0.007964
     -0.35760      8.38299      6.38894        -1.124830      0.002851     -0.001208
      7.74477      3.71467      6.47099         0.554068     -0.955932      0.004512
      3.00241      4.87414      6.40726         0.283877      0.487930     -0.003098
      0.98028      8.38221      6.38819         1.119936     -0.001408      0.001320
      7.07485      4.87332      6.46643        -0.567223      0.956289     -0.002497
      2.33686      3.71318      6.41055        -0.282525     -0.494348     -0.001832
      4.88373      2.81589      9.65354        -0.008289      0.001388      0.007405
      5.01851      2.91985     10.74024        -0.003728     -0.003367     -0.002086
      4.83169      4.03733      9.06209         0.000856     -0.011899      0.003479
      3.72696      2.15501      9.38025         0.016039      0.000255      0.005451
      5.91588      2.11888      9.11113        -0.011141      0.001222      0.013982
 -----------------------------------------------------------------------------------
    total drift:                                0.054730      0.038593     -0.017412


--------------------------------------------------------------------------------------------------------



  FREE ENERGIE OF THE ION-ELECTRON SYSTEM (eV)
  ---------------------------------------------------
  free  energy   TOTEN  =      -177.07491293 eV

  energy  without entropy=     -177.07491293  energy(sigma->0) =     -177.07491293
 


--------------------------------------------------------------------------------------------------------


    POTLOK:  cpu time      7.7124: real time      7.7151


--------------------------------------------------------------------------------------------------------


 writing wavefunctions
     LOOP+:  cpu time   3053.0735: real time   3054.8446
    4ORBIT:  cpu time      0.0000: real time      0.0000



 total charge

# of ion       s       p       d       tot
------------------------------------------
    1        0.857   1.766   0.000   2.622
    2        0.857   1.766   0.000   2.622
    3        0.857   1.766   0.000   2.623
    4        0.857   1.766   0.000   2.623
    5        0.857   1.765   0.000   2.622
    6        0.857   1.765   0.000   2.623
    7        0.900   1.770   0.000   2.670
    8        0.900   1.770   0.000   2.670
    9        0.900   1.769   0.000   2.669
   10        0.900   1.771   0.000   2.671
   11        0.900   1.769   0.000   2.669
   12        0.900   1.768   0.000   2.668
   13        0.895   1.801   0.000   2.696
   14        0.895   1.801   0.000   2.696
   15        0.895   1.800   0.000   2.696
   16        0.895   1.801   0.000   2.697
   17        0.895   1.801   0.000   2.696
   18        0.895   1.800   0.000   2.695
   19        0.815   1.558   0.000   2.373
   20        0.654   0.045   0.000   0.699
   21        1.754   4.370   0.000   6.124
   22        1.754   4.370   0.000   6.123
   23        1.754   4.370   0.000   6.124
--------------------------------------------------
tot         22.644  46.726   0.000  69.370



 magnetization (x)

# of ion       s       p       d       tot
------------------------------------------
    1       -0.000  -0.000   0.000  -0.000
    2       -0.000  -0.000   0.000  -0.000
    3       -0.000  -0.000   0.000  -0.000
    4       -0.000   0.000   0.000  -0.000
    5       -0.000  -0.000   0.000  -0.000
    6       -0.000  -0.000   0.000  -0.000
    7        0.000   0.000   0.000   0.000
    8        0.000  -0.000   0.000   0.000
    9        0.000   0.000   0.000   0.000
   10        0.000   0.000   0.000   0.000
   11       -0.000   0.000   0.000   0.000
   12        0.000  -0.000   0.000  -0.000
   13        0.000   0.000   0.000   0.000
   14        0.000   0.000   0.000   0.000
   15        0.000  -0.000   0.000  -0.000
   16        0.000  -0.000   0.000   0.000
   17        0.000  -0.000   0.000  -0.000
   18        0.000   0.000   0.000   0.000
   19        0.000  -0.000   0.000  -0.000
   20       -0.000   0.000   0.000  -0.000
   21        0.000   0.000   0.000   0.000
   22        0.000  -0.000   0.000  -0.000
   23        0.000   0.000   0.000   0.000
--------------------------------------------------
tot          0.000   0.000   0.000   0.000
 

 total amount of memory used by VASP MPI-rank0  4132651. kBytes
=======================================================================

   base                                    :      30000. kBytes
   nonlr-proj                              :       2690. kBytes
   fftplans                                :     295284. kBytes
   grid                                    :     194873. kBytes
   one-center                              :         49. kBytes
   wavefun                                 :    3609755. kBytes
 
  
  
 General timing and accounting informations for this job:
 ========================================================
  
                  Total CPU time used (sec):     3128.012
                            User time (sec):     2810.953
                          System time (sec):      317.059
                         Elapsed time (sec):     3130.319
  
                   Maximum memory used (kb):     4606604.
                   Average memory used (kb):          N/A
  
                          Minor page faults:      2274893
                          Major page faults:            4
                 Voluntary context switches:         1171
