AA                                      
   1.00000000000000     
     9.4552721226821053    0.0018666700944810    0.0424358656027173
    -4.7307988482094228    8.1914249661424385   -0.0161498220985774
     1.4689808044298223    0.9175011503403452   20.0090073763389888
   C    H    F 
    19     1     3
Direct
     0.1285347404375727    0.9875750942597534    0.3206692254679098
     0.9771889938710316    0.1390319378811213    0.3209774674506107
     0.8258301732586872    0.8363589586380016    0.3201564998791611
     0.8260107223821507    0.9878378230800919    0.3200865058664490
     0.9770244393577201    0.8361810926882143    0.3208313906163340
     0.1286037124628976    0.1389362665027960    0.3208518291897420
     0.2762869855282233    0.9875841478839575    0.3199903637602901
     0.9774269600792564    0.2867692030595848    0.3214750095034304
     0.6780755141881798    0.6891201708921741    0.3196046375148427
     0.6785856128035874    0.9878220481148716    0.3191941979381383
     0.9772601746795573    0.6886529434233353    0.3211832388673983
     0.2763139311154745    0.2866247451351001    0.3205052308848693
     0.4066810290660001    0.9875364374155993    0.3192379154506497
     0.9778758277453150    0.4172304867843124    0.3216665691683502
     0.5476444857561162    0.5591172109300473    0.3195088387889911
     0.5481838235372365    0.9874463846914168    0.3189002021361347
     0.9778190968957858    0.5586897672330053    0.3215529857098147
     0.4062851998574430    0.4173813916923663    0.3198584410201732
     0.5866578040305228    0.2897007004329240    0.4814493555713497
     0.5957829461434230    0.2963090127339143    0.5357458511394171
     0.6620077207108537    0.4421110467690141    0.4518532893419902
     0.4267969472358999    0.2105570470376605    0.4680663146092243
     0.6590141146087376    0.2076555305559111    0.4541212879492065
