unknown system                          
           1
     9.455272    0.001867    0.042436
    -4.730799    8.191425   -0.016150
     1.468981    0.917501   20.009007
   C    H    F 
    19     1     3
Direct configuration=     1
   0.12853474  0.98757509  0.32066923
   0.97718899  0.13903194  0.32097747
   0.82583017  0.83635896  0.32015650
   0.82601072  0.98783782  0.32008651
   0.97702444  0.83618109  0.32083139
   0.12860371  0.13893627  0.32085183
   0.27628699  0.98758415  0.31999036
   0.97742696  0.28676920  0.32147501
   0.67807551  0.68912017  0.31960464
   0.67858561  0.98782205  0.31919420
   0.97726017  0.68865294  0.32118324
   0.27631393  0.28662475  0.32050523
   0.40668103  0.98753644  0.31923792
   0.97787583  0.41723049  0.32166657
   0.54764449  0.55911721  0.31950884
   0.54818382  0.98744638  0.31890020
   0.97781910  0.55868977  0.32155299
   0.40628520  0.41738139  0.31985844
   0.58665780  0.28970070  0.48144936
   0.59578295  0.29630901  0.53574585
   0.66200772  0.44211105  0.45185329
   0.42679695  0.21055705  0.46806631
   0.65901411  0.20765553  0.45412129
