CHF3 at GDY+CHF3 geometry (CDD fragment)
   1.00000000000000
     9.4552721226821053    0.0018666700944810    0.0424358656027173
    -4.7307988482094228    8.1914249661424385   -0.0161498220985774
     1.4689808044298223    0.9175011503403452   20.0090073763389888
   C    H    F
    1    1    3
Direct
     0.5866578040305216    0.2897007004329247    0.4814493555713523
     0.5957829461434242    0.2963090127339132    0.5357458511394156
     0.6620077207108533    0.4421110467690116    0.4518532893419891
     0.4267969472359001    0.2105570470376586    0.4680663146092253
     0.6590141146087389    0.2076555305559135    0.4541212879492061
