       N       E                     dE             d eps       ncg     rms          rms(c)
DAV:   1     0.915301608284E+03    0.91530E+03   -0.33974E+04  3796   0.111E+03
DAV:   2     0.415062868954E+02   -0.87380E+03   -0.84048E+03  4936   0.255E+02
DAV:   3    -0.183555404318E+03   -0.22506E+03   -0.22411E+03  3667   0.138E+02
DAV:   4    -0.193153173256E+03   -0.95978E+01   -0.94973E+01  3715   0.368E+01
DAV:   5    -0.193397004711E+03   -0.24383E+00   -0.24251E+00  4251   0.531E+00    0.225E+01
DAV:   6    -0.180736789784E+03    0.12660E+02   -0.18824E+01  3635   0.165E+01    0.125E+01
DAV:   7    -0.177456122007E+03    0.32807E+01   -0.12492E+01  3491   0.122E+01    0.427E+00
DAV:   8    -0.177412847187E+03    0.43275E-01   -0.74456E-01  3818   0.330E+00    0.151E+00
DAV:   9    -0.177377801452E+03    0.35046E-01   -0.67382E-02  3694   0.111E+00    0.414E-01
DAV:  10    -0.177365901868E+03    0.11900E-01   -0.78900E-03  3977   0.447E-01    0.205E-01
DAV:  11    -0.177359146726E+03    0.67551E-02   -0.46863E-03  3640   0.289E-01    0.121E-01
DAV:  12    -0.177356537242E+03    0.26095E-02   -0.49058E-03  3600   0.283E-01    0.908E-02
DAV:  13    -0.177357197091E+03   -0.65985E-03   -0.20495E-03  3677   0.208E-01    0.628E-02
DAV:  14    -0.177360515662E+03   -0.33186E-02   -0.10715E-03  3624   0.154E-01    0.338E-02
DAV:  15    -0.177363027229E+03   -0.25116E-02   -0.38397E-04  3645   0.711E-02    0.199E-02
DAV:  16    -0.177365123035E+03   -0.20958E-02   -0.14550E-04  3544   0.403E-02    0.145E-02
DAV:  17    -0.177366497520E+03   -0.13745E-02   -0.82624E-05  3555   0.256E-02    0.784E-03
DAV:  18    -0.177367236461E+03   -0.73894E-03   -0.52939E-05  3550   0.190E-02    0.495E-03
DAV:  19    -0.177367488189E+03   -0.25173E-03   -0.14439E-05  3237   0.102E-02    0.310E-03
DAV:  20    -0.177367618808E+03   -0.13062E-03   -0.81336E-06  3357   0.793E-03    0.158E-03
DAV:  21    -0.177367677164E+03   -0.58356E-04   -0.22553E-06  3021   0.487E-03    0.958E-04
DAV:  22    -0.177367724129E+03   -0.46966E-04   -0.22510E-06  3066   0.467E-03    0.813E-04
DAV:  23    -0.177367740075E+03   -0.15946E-04   -0.51873E-07  2699   0.348E-03    0.579E-04
DAV:  24    -0.177367760959E+03   -0.20883E-04   -0.70262E-07  2580   0.378E-03    0.402E-04
DAV:  25    -0.177367767725E+03   -0.67663E-05   -0.48753E-07  2665   0.332E-03    0.310E-04
DAV:  26    -0.177367770464E+03   -0.27394E-05   -0.15133E-07  2169   0.177E-03    0.248E-04
DAV:  27    -0.177367772372E+03   -0.19079E-05   -0.59424E-08  2215   0.945E-04    0.239E-04
DAV:  28    -0.177367772828E+03   -0.45591E-06   -0.14877E-08  2073   0.451E-04
   1 F= -.17796007E+03 E0= -.17796007E+03  d E =0.000000E+00  mag=    -0.0000
