GDY sheet at GDY+CHF3 geometry (CDD fragment)
   1.00000000000000
     9.4552721226821053    0.0018666700944810    0.0424358656027173
    -4.7307988482094228    8.1914249661424385   -0.0161498220985774
     1.4689808044298223    0.9175011503403452   20.0090073763389888
   C
    18
Direct
     0.1285347404375697    0.9875750942597559    0.3206692254679130
     0.9771889938710320    0.1390319378811240    0.3209774674506092
     0.8258301732586857    0.8363589586380051    0.3201564998791587
     0.8260107223821473    0.9878378230800920    0.3200865058664499
     0.9770244393577212    0.8361810926882171    0.3208313906163365
     0.1286037124628975    0.1389362665027981    0.3208518291897385
     0.2762869855282215    0.9875841478839605    0.3199903637602893
     0.9774269600792580    0.2867692030595854    0.3214750095034303
     0.6780755141881830    0.6891201708921728    0.3196046375148393
     0.6785856128035902    0.9878220481148737    0.3191941979381382
     0.9772601746795581    0.6886529434233367    0.3211832388673954
     0.2763139311154758    0.2866247451351026    0.3205052308848708
     0.4066810290660027    0.9875364374155982    0.3192379154506463
     0.9778758277453149    0.4172304867843090    0.3216665691683478
     0.5476444857561177    0.5591172109300487    0.3195088387889902
     0.5481838235372365    0.9874463846914142    0.3189002021361336
     0.9778190968957847    0.5586897672330063    0.3215529857098180
     0.4062851998574458    0.4173813916923680    0.3198584410201699
