  23  23   0   0
  0.6736359E+02  0.9458029E-09  0.9461280E-09  0.2006454E-08  0.5000000E-15
  1.000000000000000E-004
  CAR 
 unknown system                          
      3.51340704    -33.62519993  301     -3.77504457      1.00000000
    -33.625  0.0000E+00  0.0000E+00  0.0000E+00  0.0000E+00
    -33.501  0.0000E+00  0.0000E+00  0.0000E+00  0.0000E+00
    -33.378  0.0000E+00  0.0000E+00  0.0000E+00  0.0000E+00
    -33.254  0.0000E+00  0.0000E+00  0.0000E+00  0.0000E+00
    -33.130  0.0000E+00  0.0000E+00  0.0000E+00  0.0000E+00
    -33.006  0.0000E+00  0.0000E+00  0.0000E+00  0.0000E+00
    -32.882  0.0000E+00  0.0000E+00  0.0000E+00  0.0000E+00
    -32.759  0.0000E+00  0.0000E+00  0.0000E+00  0.0000E+00
    -32.635  0.0000E+00  0.0000E+00  0.0000E+00  0.0000E+00
    -32.511  0.0000E+00  0.0000E+00  0.0000E+00  0.0000E+00
    -32.387  0.0000E+00  0.0000E+00  0.0000E+00  0.0000E+00
    -32.263  0.0000E+00  0.0000E+00  0.0000E+00  0.0000E+00
    -32.140  0.2013E-09  0.2013E-09  0.2493E-10  0.2493E-10
    -32.016  0.5203E-03  0.5203E-03  0.6441E-04  0.6441E-04
    -31.892  0.3576E-01  0.3576E-01  0.4491E-02  0.4491E-02
    -31.768  0.4109E-02  0.4109E-02  0.5000E-02  0.5000E-02
    -31.644  0.3663E-07  0.3663E-07  0.5000E-02  0.5000E-02
    -31.521  0.0000E+00  0.0000E+00  0.5000E-02  0.5000E-02
    -31.397  0.0000E+00  0.0000E+00  0.5000E-02  0.5000E-02
    -31.273  0.0000E+00  0.0000E+00  0.5000E-02  0.5000E-02
    -31.149  0.0000E+00  0.0000E+00  0.5000E-02  0.5000E-02
    -31.025  0.0000E+00  0.0000E+00  0.5000E-02  0.5000E-02
    -30.902  0.0000E+00  0.0000E+00  0.5000E-02  0.5000E-02
    -30.778  0.0000E+00  0.0000E+00  0.5000E-02  0.5000E-02
    -30.654  0.0000E+00  0.0000E+00  0.5000E-02  0.5000E-02
    -30.530  0.0000E+00  0.0000E+00  0.5000E-02  0.5000E-02
    -30.407  0.0000E+00  0.0000E+00  0.5000E-02  0.5000E-02
    -30.283  0.0000E+00  0.0000E+00  0.5000E-02  0.5000E-02
    -30.159  0.0000E+00  0.0000E+00  0.5000E-02  0.5000E-02
    -30.035  0.6058E-15  0.6058E-15  0.5000E-02  0.5000E-02
    -29.911  0.1113E-05  0.1113E-05  0.5000E-02  0.5000E-02
    -29.788  0.1958E-01  0.1958E-01  0.7424E-02  0.7424E-02
    -29.664  0.6099E-01  0.6099E-01  0.1497E-01  0.1497E-01
    -29.540  0.2091E-03  0.2091E-03  0.1500E-01  0.1500E-01
    -29.416  0.1280E-10  0.1280E-10  0.1500E-01  0.1500E-01
    -29.292  0.0000E+00  0.0000E+00  0.1500E-01  0.1500E-01
    -29.169  0.0000E+00  0.0000E+00  0.1500E-01  0.1500E-01
    -29.045  0.0000E+00  0.0000E+00  0.1500E-01  0.1500E-01
    -28.921  0.0000E+00  0.0000E+00  0.1500E-01  0.1500E-01
    -28.797  0.0000E+00  0.0000E+00  0.1500E-01  0.1500E-01
    -28.673  0.0000E+00  0.0000E+00  0.1500E-01  0.1500E-01
    -28.550  0.0000E+00  0.0000E+00  0.1500E-01  0.1500E-01
    -28.426  0.0000E+00  0.0000E+00  0.1500E-01  0.1500E-01
    -28.302  0.0000E+00  0.0000E+00  0.1500E-01  0.1500E-01
    -28.178  0.0000E+00  0.0000E+00  0.1500E-01  0.1500E-01
    -28.054  0.0000E+00  0.0000E+00  0.1500E-01  0.1500E-01
    -27.931  0.0000E+00  0.0000E+00  0.1500E-01  0.1500E-01
    -27.807  0.0000E+00  0.0000E+00  0.1500E-01  0.1500E-01
    -27.683  0.0000E+00  0.0000E+00  0.1500E-01  0.1500E-01
    -27.559  0.0000E+00  0.0000E+00  0.1500E-01  0.1500E-01
    -27.435  0.0000E+00  0.0000E+00  0.1500E-01  0.1500E-01
    -27.312  0.0000E+00  0.0000E+00  0.1500E-01  0.1500E-01
    -27.188  0.0000E+00  0.0000E+00  0.1500E-01  0.1500E-01
    -27.064  0.0000E+00  0.0000E+00  0.1500E-01  0.1500E-01
    -26.940  0.0000E+00  0.0000E+00  0.1500E-01  0.1500E-01
    -26.816  0.0000E+00  0.0000E+00  0.1500E-01  0.1500E-01
    -26.693  0.0000E+00  0.0000E+00  0.1500E-01  0.1500E-01
    -26.569  0.0000E+00  0.0000E+00  0.1500E-01  0.1500E-01
    -26.445  0.0000E+00  0.0000E+00  0.1500E-01  0.1500E-01
    -26.321  0.0000E+00  0.0000E+00  0.1500E-01  0.1500E-01
    -26.197  0.0000E+00  0.0000E+00  0.1500E-01  0.1500E-01
    -26.074  0.0000E+00  0.0000E+00  0.1500E-01  0.1500E-01
    -25.950  0.0000E+00  0.0000E+00  0.1500E-01  0.1500E-01
    -25.826  0.0000E+00  0.0000E+00  0.1500E-01  0.1500E-01
    -25.702  0.0000E+00  0.0000E+00  0.1500E-01  0.1500E-01
    -25.579  0.0000E+00  0.0000E+00  0.1500E-01  0.1500E-01
    -25.455  0.0000E+00  0.0000E+00  0.1500E-01  0.1500E-01
    -25.331  0.0000E+00  0.0000E+00  0.1500E-01  0.1500E-01
    -25.207  0.0000E+00  0.0000E+00  0.1500E-01  0.1500E-01
    -25.083  0.0000E+00  0.0000E+00  0.1500E-01  0.1500E-01
    -24.960  0.0000E+00  0.0000E+00  0.1500E-01  0.1500E-01
    -24.836  0.0000E+00  0.0000E+00  0.1500E-01  0.1500E-01
    -24.712  0.0000E+00  0.0000E+00  0.1500E-01  0.1500E-01
    -24.588  0.0000E+00  0.0000E+00  0.1500E-01  0.1500E-01
    -24.464  0.0000E+00  0.0000E+00  0.1500E-01  0.1500E-01
    -24.341  0.0000E+00  0.0000E+00  0.1500E-01  0.1500E-01
    -24.217  0.0000E+00  0.0000E+00  0.1500E-01  0.1500E-01
    -24.093  0.0000E+00  0.0000E+00  0.1500E-01  0.1500E-01
    -23.969  0.0000E+00  0.0000E+00  0.1500E-01  0.1500E-01
    -23.845  0.0000E+00  0.0000E+00  0.1500E-01  0.1500E-01
    -23.722  0.0000E+00  0.0000E+00  0.1500E-01  0.1500E-01
    -23.598  0.0000E+00  0.0000E+00  0.1500E-01  0.1500E-01
    -23.474  0.0000E+00  0.0000E+00  0.1500E-01  0.1500E-01
    -23.350  0.0000E+00  0.0000E+00  0.1500E-01  0.1500E-01
    -23.226  0.0000E+00  0.0000E+00  0.1500E-01  0.1500E-01
    -23.103  0.0000E+00  0.0000E+00  0.1500E-01  0.1500E-01
    -22.979  0.0000E+00  0.0000E+00  0.1500E-01  0.1500E-01
    -22.855  0.0000E+00  0.0000E+00  0.1500E-01  0.1500E-01
    -22.731  0.0000E+00  0.0000E+00  0.1500E-01  0.1500E-01
    -22.607  0.0000E+00  0.0000E+00  0.1500E-01  0.1500E-01
    -22.484  0.0000E+00  0.0000E+00  0.1500E-01  0.1500E-01
    -22.360  0.0000E+00  0.0000E+00  0.1500E-01  0.1500E-01
    -22.236  0.4536E-12  0.4536E-12  0.1500E-01  0.1500E-01
    -22.112  0.2657E-04  0.2657E-04  0.1500E-01  0.1500E-01
    -21.988  0.2441E-01  0.2441E-01  0.1803E-01  0.1803E-01
    -21.865  0.1594E-01  0.1594E-01  0.2000E-01  0.2000E-01
    -21.741  0.3572E-05  0.3572E-05  0.2000E-01  0.2000E-01
    -21.617  0.9240E-14  0.9240E-14  0.2000E-01  0.2000E-01
    -21.493  0.0000E+00  0.0000E+00  0.2000E-01  0.2000E-01
    -21.369  0.0000E+00  0.0000E+00  0.2000E-01  0.2000E-01
    -21.246  0.0000E+00  0.0000E+00  0.2000E-01  0.2000E-01
    -21.122  0.0000E+00  0.0000E+00  0.2000E-01  0.2000E-01
    -20.998  0.0000E+00  0.0000E+00  0.2000E-01  0.2000E-01
    -20.874  0.0000E+00  0.0000E+00  0.2000E-01  0.2000E-01
    -20.750  0.0000E+00  0.0000E+00  0.2000E-01  0.2000E-01
    -20.627  0.2777E-15  0.2777E-15  0.2000E-01  0.2000E-01
    -20.503  0.3997E-06  0.3997E-06  0.2000E-01  0.2000E-01
    -20.379  0.6362E-02  0.6362E-02  0.2079E-01  0.2079E-01
    -20.255  0.5431E-01  0.5431E-01  0.2751E-01  0.2751E-01
    -20.132  0.2004E-01  0.2004E-01  0.2999E-01  0.2999E-01
    -20.008  0.6098E-04  0.6098E-04  0.3000E-01  0.3000E-01
    -19.884  0.1696E-10  0.1696E-10  0.3000E-01  0.3000E-01
    -19.760  0.0000E+00  0.0000E+00  0.3000E-01  0.3000E-01
    -19.636  0.6753E-16  0.6753E-16  0.3000E-01  0.3000E-01
    -19.513  0.8209E-07  0.8209E-07  0.3000E-01  0.3000E-01
    -19.389  0.1516E-02  0.1516E-02  0.3019E-01  0.3019E-01
    -19.265  0.2964E-01  0.2964E-01  0.3386E-01  0.3386E-01
    -19.141  0.3045E-01  0.3045E-01  0.3763E-01  0.3763E-01
    -19.017  0.2044E-01  0.2044E-01  0.4016E-01  0.4016E-01
    -18.894  0.1011E-01  0.1011E-01  0.4141E-01  0.4141E-01
    -18.770  0.1502E-01  0.1502E-01  0.4327E-01  0.4327E-01
    -18.646  0.1350E-01  0.1350E-01  0.4494E-01  0.4494E-01
    -18.522  0.4990E-03  0.4991E-03  0.4500E-01  0.4500E-01
    -18.398  0.5383E-04  0.5383E-04  0.4501E-01  0.4501E-01
    -18.275  0.8750E-02  0.8750E-02  0.4609E-01  0.4609E-01
    -18.151  0.1838E-01  0.1838E-01  0.4837E-01  0.4837E-01
    -18.027  0.3122E-02  0.3122E-02  0.4875E-01  0.4875E-01
    -17.903  0.1796E-01  0.1796E-01  0.5098E-01  0.5098E-01
    -17.779  0.1075E-01  0.1075E-01  0.5231E-01  0.5231E-01
    -17.656  0.8897E-03  0.8897E-03  0.5242E-01  0.5242E-01
    -17.532  0.1700E-01  0.1700E-01  0.5452E-01  0.5452E-01
    -17.408  0.1477E-01  0.1477E-01  0.5635E-01  0.5635E-01
    -17.284  0.6952E-02  0.6952E-02  0.5721E-01  0.5721E-01
    -17.160  0.1207E-01  0.1207E-01  0.5871E-01  0.5871E-01
    -17.037  0.7218E-02  0.7218E-02  0.5960E-01  0.5960E-01
    -16.913  0.3124E-02  0.3124E-02  0.5999E-01  0.5999E-01
    -16.789  0.1535E-01  0.1535E-01  0.6189E-01  0.6189E-01
    -16.665  0.3170E-01  0.3170E-01  0.6581E-01  0.6581E-01
    -16.541  0.1451E-01  0.1451E-01  0.6761E-01  0.6761E-01
    -16.418  0.4567E-02  0.4567E-02  0.6817E-01  0.6817E-01
    -16.294  0.7604E-02  0.7604E-02  0.6911E-01  0.6911E-01
    -16.170  0.1988E-01  0.1988E-01  0.7157E-01  0.7157E-01
    -16.046  0.8280E-02  0.8280E-02  0.7260E-01  0.7260E-01
    -15.922  0.3434E-05  0.3434E-05  0.7260E-01  0.7260E-01
    -15.799  0.4408E-02  0.4408E-02  0.7315E-01  0.7315E-01
    -15.675  0.1364E-01  0.1364E-01  0.7483E-01  0.7483E-01
    -15.551  0.2811E-02  0.2811E-02  0.7518E-01  0.7518E-01
    -15.427  0.2423E-03  0.2423E-03  0.7521E-01  0.7521E-01
    -15.303  0.1548E-01  0.1548E-01  0.7713E-01  0.7713E-01
    -15.180  0.3813E-02  0.3813E-02  0.7760E-01  0.7760E-01
    -15.056  0.1809E-03  0.1809E-03  0.7762E-01  0.7762E-01
    -14.932  0.1264E-01  0.1264E-01  0.7919E-01  0.7919E-01
    -14.808  0.1015E-01  0.1015E-01  0.8044E-01  0.8044E-01
    -14.685  0.1511E-01  0.1511E-01  0.8231E-01  0.8231E-01
    -14.561  0.6896E-03  0.6896E-03  0.8240E-01  0.8240E-01
    -14.437  0.4259E-04  0.4259E-04  0.8241E-01  0.8241E-01
    -14.313  0.1182E-01  0.1182E-01  0.8387E-01  0.8387E-01
    -14.189  0.2050E-01  0.2050E-01  0.8641E-01  0.8641E-01
    -14.066  0.6406E-02  0.6406E-02  0.8720E-01  0.8720E-01
    -13.942  0.3494E-02  0.3494E-02  0.8763E-01  0.8763E-01
    -13.818  0.1171E-01  0.1171E-01  0.8908E-01  0.8908E-01
    -13.694  0.4097E-01  0.4097E-01  0.9415E-01  0.9415E-01
    -13.570  0.1832E-01  0.1832E-01  0.9642E-01  0.9642E-01
    -13.447  0.6185E-01  0.6185E-01  0.1041E+00  0.1041E+00
    -13.323  0.3540E-01  0.3540E-01  0.1085E+00  0.1085E+00
    -13.199  0.6966E-02  0.6966E-02  0.1093E+00  0.1093E+00
    -13.075  0.1511E-01  0.1511E-01  0.1112E+00  0.1112E+00
    -12.951  0.4672E-02  0.4672E-02  0.1118E+00  0.1118E+00
    -12.828  0.1542E-01  0.1542E-01  0.1137E+00  0.1137E+00
    -12.704  0.9472E-02  0.9472E-02  0.1149E+00  0.1149E+00
    -12.580  0.1184E-02  0.1184E-02  0.1150E+00  0.1150E+00
    -12.456  0.1491E-07  0.1491E-07  0.1150E+00  0.1150E+00
    -12.332  0.1163E-04  0.1163E-04  0.1150E+00  0.1150E+00
    -12.209  0.1883E-01  0.1883E-01  0.1173E+00  0.1173E+00
    -12.085  0.2153E-01  0.2153E-01  0.1200E+00  0.1200E+00
    -11.961  0.1795E-04  0.1795E-04  0.1200E+00  0.1200E+00
    -11.837  0.2147E-05  0.2147E-05  0.1200E+00  0.1200E+00
    -11.713  0.3709E-02  0.3709E-02  0.1205E+00  0.1205E+00
    -11.590  0.2791E-01  0.2791E-01  0.1239E+00  0.1239E+00
    -11.466  0.2818E-01  0.2818E-01  0.1274E+00  0.1274E+00
    -11.342  0.2082E-01  0.2082E-01  0.1300E+00  0.1300E+00
    -11.218  0.1518E-03  0.1518E-03  0.1300E+00  0.1300E+00
    -11.094  0.3254E-10  0.3254E-10  0.1300E+00  0.1300E+00
    -10.971  0.0000E+00  0.0000E+00  0.1300E+00  0.1300E+00
    -10.847  0.0000E+00  0.0000E+00  0.1300E+00  0.1300E+00
    -10.723  0.0000E+00  0.0000E+00  0.1300E+00  0.1300E+00
    -10.599  0.0000E+00  0.0000E+00  0.1300E+00  0.1300E+00
    -10.475  0.0000E+00  0.0000E+00  0.1300E+00  0.1300E+00
    -10.352  0.1012E-08  0.1012E-08  0.1300E+00  0.1300E+00
    -10.228  0.1070E-02  0.1070E-02  0.1301E+00  0.1301E+00
    -10.104  0.9026E-01  0.9026E-01  0.1413E+00  0.1413E+00
     -9.980  0.1010E+00  0.1010E+00  0.1538E+00  0.1538E+00
     -9.856  0.9606E-02  0.9606E-02  0.1550E+00  0.1550E+00
     -9.733  0.6276E-05  0.6276E-05  0.1550E+00  0.1550E+00
     -9.609  0.2267E-12  0.2267E-12  0.1550E+00  0.1550E+00
     -9.485  0.4021E-13  0.4021E-13  0.1550E+00  0.1550E+00
     -9.361  0.1125E-04  0.1125E-04  0.1550E+00  0.1550E+00
     -9.238  0.3595E-01  0.3595E-01  0.1595E+00  0.1595E+00
     -9.114  0.4479E-01  0.4479E-01  0.1650E+00  0.1650E+00
     -8.990  0.1834E-03  0.1834E-03  0.1650E+00  0.1650E+00
     -8.866  0.1706E-01  0.1706E-01  0.1671E+00  0.1671E+00
     -8.742  0.1957E-01  0.1957E-01  0.1696E+00  0.1696E+00
     -8.619  0.5836E-01  0.5836E-01  0.1768E+00  0.1768E+00
     -8.495  0.2517E-01  0.2517E-01  0.1799E+00  0.1799E+00
     -8.371  0.3762E-01  0.3762E-01  0.1846E+00  0.1846E+00
     -8.247  0.3948E-02  0.3948E-02  0.1850E+00  0.1850E+00
     -8.123  0.3494E-02  0.3494E-02  0.1855E+00  0.1855E+00
     -8.000  0.2407E-01  0.2407E-01  0.1885E+00  0.1885E+00
     -7.876  0.7237E-01  0.7237E-01  0.1974E+00  0.1974E+00
     -7.752  0.5080E-01  0.5080E-01  0.2037E+00  0.2037E+00
     -7.628  0.3146E-01  0.3146E-01  0.2076E+00  0.2076E+00
     -7.504  0.1020E-01  0.1020E-01  0.2089E+00  0.2089E+00
     -7.381  0.8064E-02  0.8064E-02  0.2099E+00  0.2099E+00
     -7.257  0.2982E-02  0.2982E-02  0.2102E+00  0.2102E+00
     -7.133  0.8806E-02  0.8806E-02  0.2113E+00  0.2113E+00
     -7.009  0.6877E-03  0.6877E-03  0.2114E+00  0.2114E+00
     -6.885  0.7240E-02  0.7240E-02  0.2123E+00  0.2123E+00
     -6.762  0.1202E-01  0.1202E-01  0.2138E+00  0.2138E+00
     -6.638  0.1719E-02  0.1719E-02  0.2140E+00  0.2140E+00
     -6.514  0.8058E-02  0.8058E-02  0.2150E+00  0.2150E+00
     -6.390  0.7149E-02  0.7149E-02  0.2159E+00  0.2159E+00
     -6.266  0.8505E-02  0.8505E-02  0.2169E+00  0.2169E+00
     -6.143  0.6553E-02  0.6553E-02  0.2177E+00  0.2177E+00
     -6.019  0.9161E-02  0.9161E-02  0.2189E+00  0.2189E+00
     -5.895  0.9042E-02  0.9042E-02  0.2200E+00  0.2200E+00
     -5.771  0.6980E-02  0.6980E-02  0.2209E+00  0.2209E+00
     -5.647  0.2379E-01  0.2379E-01  0.2238E+00  0.2238E+00
     -5.524  0.3809E-01  0.3809E-01  0.2285E+00  0.2285E+00
     -5.400  0.2853E-01  0.2853E-01  0.2321E+00  0.2321E+00
     -5.276  0.1887E-01  0.1887E-01  0.2344E+00  0.2344E+00
     -5.152  0.1202E-01  0.1202E-01  0.2359E+00  0.2359E+00
     -5.028  0.6289E-02  0.6289E-02  0.2367E+00  0.2367E+00
     -4.905  0.2934E-01  0.2934E-01  0.2403E+00  0.2403E+00
     -4.781  0.5601E-02  0.5601E-02  0.2410E+00  0.2410E+00
     -4.657  0.3158E-02  0.3158E-02  0.2414E+00  0.2414E+00
     -4.533  0.1624E-01  0.1624E-01  0.2434E+00  0.2434E+00
     -4.409  0.3083E-02  0.3083E-02  0.2438E+00  0.2438E+00
     -4.286  0.6723E-02  0.6723E-02  0.2446E+00  0.2446E+00
     -4.162  0.1378E-04  0.1378E-04  0.2446E+00  0.2446E+00
     -4.038  0.8930E-03  0.8930E-03  0.2447E+00  0.2447E+00
     -3.914  0.2332E-02  0.2332E-02  0.2450E+00  0.2450E+00
     -3.791  0.6074E-05  0.6074E-05  0.2450E+00  0.2450E+00
     -3.667  0.5238E-06  0.5238E-06  0.2450E+00  0.2450E+00
     -3.543  0.1489E-02  0.1489E-02  0.2452E+00  0.2452E+00
     -3.419  0.1741E-02  0.1741E-02  0.2454E+00  0.2454E+00
     -3.295  0.1131E-05  0.1131E-05  0.2454E+00  0.2454E+00
     -3.172  0.1625E-02  0.1625E-02  0.2456E+00  0.2456E+00
     -3.048  0.8015E-02  0.8015E-02  0.2466E+00  0.2466E+00
     -2.924  0.1234E-02  0.1234E-02  0.2467E+00  0.2467E+00
     -2.800  0.1771E-01  0.1771E-01  0.2489E+00  0.2489E+00
     -2.676  0.4927E-03  0.4927E-03  0.2490E+00  0.2490E+00
     -2.553  0.1491E-02  0.1491E-02  0.2492E+00  0.2492E+00
     -2.429  0.1510E-01  0.1510E-01  0.2511E+00  0.2511E+00
     -2.305  0.1158E-01  0.1158E-01  0.2525E+00  0.2525E+00
     -2.181  0.9049E-03  0.9049E-03  0.2526E+00  0.2526E+00
     -2.057  0.6939E-08  0.6939E-08  0.2526E+00  0.2526E+00
     -1.934  0.4063E-04  0.4063E-04  0.2526E+00  0.2526E+00
     -1.810  0.7776E-02  0.7776E-02  0.2536E+00  0.2536E+00
     -1.686  0.1880E-02  0.1880E-02  0.2538E+00  0.2538E+00
     -1.562  0.6119E-02  0.6119E-02  0.2546E+00  0.2546E+00
     -1.438  0.2261E-01  0.2261E-01  0.2574E+00  0.2574E+00
     -1.315  0.1655E-01  0.1655E-01  0.2594E+00  0.2594E+00
     -1.191  0.2339E-01  0.2339E-01  0.2623E+00  0.2623E+00
     -1.067  0.9414E-02  0.9414E-02  0.2635E+00  0.2635E+00
     -0.943  0.2204E-01  0.2204E-01  0.2662E+00  0.2662E+00
     -0.819  0.9404E-02  0.9404E-02  0.2674E+00  0.2674E+00
     -0.696  0.2166E-02  0.2166E-02  0.2676E+00  0.2676E+00
     -0.572  0.1939E-01  0.1939E-01  0.2700E+00  0.2700E+00
     -0.448  0.1153E-01  0.1153E-01  0.2715E+00  0.2715E+00
     -0.324  0.2470E-01  0.2470E-01  0.2745E+00  0.2745E+00
     -0.200  0.3944E-02  0.3944E-02  0.2750E+00  0.2750E+00
     -0.077  0.1895E-06  0.1895E-06  0.2750E+00  0.2750E+00
      0.047  0.3088E-03  0.3088E-03  0.2750E+00  0.2750E+00
      0.171  0.1610E-01  0.1610E-01  0.2770E+00  0.2770E+00
      0.295  0.8818E-02  0.8818E-02  0.2781E+00  0.2781E+00
      0.419  0.6362E-02  0.6362E-02  0.2789E+00  0.2789E+00
      0.542  0.1699E-01  0.1699E-01  0.2810E+00  0.2810E+00
      0.666  0.2281E-01  0.2281E-01  0.2838E+00  0.2838E+00
      0.790  0.2292E-01  0.2292E-01  0.2867E+00  0.2867E+00
      0.914  0.2458E-01  0.2458E-01  0.2897E+00  0.2897E+00
      1.037  0.2526E-02  0.2527E-02  0.2900E+00  0.2900E+00
      1.161  0.1993E-01  0.1993E-01  0.2925E+00  0.2925E+00
      1.285  0.2721E-01  0.2721E-01  0.2959E+00  0.2959E+00
      1.409  0.2860E-01  0.2861E-01  0.2994E+00  0.2994E+00
      1.533  0.2438E-01  0.2438E-01  0.3024E+00  0.3024E+00
      1.656  0.8417E-02  0.8417E-02  0.3035E+00  0.3035E+00
      1.780  0.1024E-01  0.1024E-01  0.3047E+00  0.3047E+00
      1.904  0.2114E-02  0.2114E-02  0.3050E+00  0.3050E+00
      2.028  0.2090E-04  0.2090E-04  0.3050E+00  0.3050E+00
      2.152  0.8127E-11  0.8129E-11  0.3050E+00  0.3050E+00
      2.275  0.0000E+00  0.0000E+00  0.3050E+00  0.3050E+00
      2.399  0.0000E+00  0.0000E+00  0.3050E+00  0.3050E+00
      2.523  0.0000E+00  0.0000E+00  0.3050E+00  0.3050E+00
      2.647  0.0000E+00  0.0000E+00  0.3050E+00  0.3050E+00
      2.771  0.0000E+00  0.0000E+00  0.3050E+00  0.3050E+00
      2.894  0.0000E+00  0.0000E+00  0.3050E+00  0.3050E+00
      3.018  0.0000E+00  0.0000E+00  0.3050E+00  0.3050E+00
      3.142  0.0000E+00  0.0000E+00  0.3050E+00  0.3050E+00
      3.266  0.0000E+00  0.0000E+00  0.3050E+00  0.3050E+00
      3.390  0.0000E+00  0.0000E+00  0.3050E+00  0.3050E+00
      3.513  0.0000E+00  0.0000E+00  0.3050E+00  0.3050E+00
