       N       E                     dE             d eps       ncg     rms          rms(c)
DAV:   1     0.919383492943E+03    0.91938E+03   -0.34091E+04  3844   0.111E+03
DAV:   2     0.535186720226E+02   -0.86586E+03   -0.83518E+03  4944   0.253E+02
DAV:   3    -0.174727385099E+03   -0.22825E+03   -0.22530E+03  3680   0.137E+02
DAV:   4    -0.186486503984E+03   -0.11759E+02   -0.11504E+02  3672   0.382E+01
DAV:   5    -0.186792329937E+03   -0.30583E+00   -0.30270E+00  3855   0.571E+00    0.229E+01
DAV:   6    -0.173762936577E+03    0.13029E+02   -0.20554E+01  3507   0.179E+01    0.124E+01
DAV:   7    -0.170609405246E+03    0.31535E+01   -0.11436E+01  3418   0.118E+01    0.459E+00
DAV:   8    -0.170518516909E+03    0.90888E-01   -0.85834E-01  3823   0.375E+00    0.147E+00
DAV:   9    -0.170481195477E+03    0.37321E-01   -0.74418E-02  3737   0.123E+00    0.452E-01
DAV:  10    -0.170467411893E+03    0.13784E-01   -0.95876E-03  3776   0.523E-01    0.209E-01
DAV:  11    -0.170460316250E+03    0.70956E-02   -0.44247E-03  3491   0.362E-01    0.126E-01
DAV:  12    -0.170457165455E+03    0.31508E-02   -0.65586E-03  3726   0.394E-01    0.881E-02
DAV:  13    -0.170458463744E+03   -0.12983E-02   -0.26780E-03  3392   0.228E-01    0.659E-02
DAV:  14    -0.170461348457E+03   -0.28847E-02   -0.62777E-04  3436   0.117E-01    0.346E-02
DAV:  15    -0.170464414478E+03   -0.30660E-02   -0.31285E-04  3476   0.695E-02    0.194E-02
DAV:  16    -0.170466150959E+03   -0.17365E-02   -0.10281E-04  3600   0.343E-02    0.130E-02
DAV:  17    -0.170467975215E+03   -0.18243E-02   -0.12889E-04  3425   0.311E-02    0.782E-03
DAV:  18    -0.170468494776E+03   -0.51956E-03   -0.25970E-05  3470   0.160E-02    0.416E-03
DAV:  19    -0.170468834205E+03   -0.33943E-03   -0.22932E-05  3425   0.144E-02    0.377E-03
DAV:  20    -0.170468932431E+03   -0.98226E-04   -0.47322E-06  3061   0.709E-03    0.252E-03
DAV:  21    -0.170469011025E+03   -0.78594E-04   -0.51597E-06  3267   0.849E-03    0.199E-03
DAV:  22    -0.170469041039E+03   -0.30014E-04   -0.99403E-07  2490   0.432E-03    0.139E-03
DAV:  23    -0.170469068366E+03   -0.27327E-04   -0.15557E-06  2894   0.477E-03    0.105E-03
DAV:  24    -0.170469079914E+03   -0.11549E-04   -0.24955E-07  2322   0.297E-03    0.541E-04
DAV:  25    -0.170469092667E+03   -0.12753E-04   -0.40533E-07  2307   0.278E-03    0.655E-04
DAV:  26    -0.170469099454E+03   -0.67863E-05   -0.21751E-07  2312   0.220E-03    0.470E-04
DAV:  27    -0.170469101738E+03   -0.22840E-05   -0.98769E-08  2322   0.155E-03    0.243E-04
DAV:  28    -0.170469102503E+03   -0.76575E-06   -0.36431E-08  2148   0.781E-04
   1 F= -.17110545E+03 E0= -.17110545E+03  d E =-.171105E+03  mag=    -0.0000
       N       E                     dE             d eps       ncg     rms          rms(c)
DAV:   1    -0.113102405620E+03    0.57367E+02   -0.61116E+03  3352   0.235E+02    0.332E+01
DAV:   2    -0.182765984255E+03   -0.69664E+02   -0.81889E+02  4038   0.813E+01    0.273E+01
DAV:   3    -0.172501926904E+03    0.10264E+02   -0.48914E+01  3720   0.251E+01    0.165E+01
DAV:   4    -0.170084230898E+03    0.24177E+01   -0.69326E+00  3721   0.857E+00    0.126E+01
DAV:   5    -0.169427118527E+03    0.65711E+00   -0.56206E+00  3704   0.529E+00    0.897E+00
DAV:   6    -0.169172889061E+03    0.25423E+00   -0.26295E-01  3428   0.193E+00    0.704E+00
DAV:   7    -0.168766181208E+03    0.40671E+00   -0.16306E+00  3647   0.495E+00    0.221E+00
DAV:   8    -0.168731191206E+03    0.34990E-01   -0.37032E-01  3406   0.205E+00    0.158E+00
DAV:   9    -0.168687926476E+03    0.43265E-01   -0.36464E-02  3535   0.772E-01    0.944E-01
DAV:  10    -0.168742480324E+03   -0.54554E-01   -0.25264E-02  3419   0.494E-01    0.975E-01
DAV:  11    -0.168789992845E+03   -0.47513E-01   -0.30779E-02  3575   0.719E-01    0.631E-01
DAV:  12    -0.168812587975E+03   -0.22595E-01   -0.19025E-02  3658   0.453E-01    0.383E-01
DAV:  13    -0.168821471856E+03   -0.88839E-02   -0.34191E-03  3488   0.227E-01    0.209E-01
DAV:  14    -0.168824935168E+03   -0.34633E-02   -0.21639E-03  3565   0.162E-01    0.187E-01
DAV:  15    -0.168826958907E+03   -0.20237E-02   -0.54475E-04  3461   0.794E-02    0.166E-01
DAV:  16    -0.168827696199E+03   -0.73729E-03   -0.51625E-04  3792   0.917E-02    0.413E-02
DAV:  17    -0.168829486620E+03   -0.17904E-02   -0.44969E-04  3545   0.591E-02    0.609E-02
DAV:  18    -0.168830024587E+03   -0.53797E-03   -0.14764E-04  3761   0.278E-02    0.183E-02
DAV:  19    -0.168830272838E+03   -0.24825E-03   -0.62533E-05  3892   0.217E-02    0.295E-02
DAV:  20    -0.168830383958E+03   -0.11112E-03   -0.18396E-05  3593   0.135E-02    0.184E-02
DAV:  21    -0.168830452544E+03   -0.68586E-04   -0.11551E-05  3355   0.932E-03    0.297E-03
DAV:  22    -0.168830492856E+03   -0.40312E-04   -0.42340E-06  3458   0.688E-03    0.592E-03
DAV:  23    -0.168830514871E+03   -0.22016E-04   -0.19120E-06  2736   0.429E-03    0.282E-03
DAV:  24    -0.168830528931E+03   -0.14060E-04   -0.14626E-06  2655   0.370E-03    0.181E-03
DAV:  25    -0.168830536055E+03   -0.71240E-05   -0.54268E-07  2445   0.220E-03    0.158E-03
DAV:  26    -0.168830538821E+03   -0.27658E-05   -0.28180E-07  2315   0.179E-03    0.550E-04
DAV:  27    -0.168830542011E+03   -0.31899E-05   -0.28876E-07  2318   0.155E-03    0.940E-04
DAV:  28    -0.168830543933E+03   -0.19219E-05   -0.18772E-07  2382   0.149E-03    0.279E-04
DAV:  29    -0.168830545048E+03   -0.11147E-05   -0.10858E-07  2153   0.983E-04    0.275E-04
DAV:  30    -0.168830545643E+03   -0.59547E-06   -0.51039E-08  1918   0.693E-04
   2 F= -.16948092E+03 E0= -.16947465E+03  d E =0.162454E+01  mag=     0.2143
       N       E                     dE             d eps       ncg     rms          rms(c)
DAV:   1    -0.169046664929E+03   -0.21612E+00   -0.30863E+02  3172   0.641E+01    0.456E+00
DAV:   2    -0.170300037302E+03   -0.12534E+01   -0.15402E+01  3387   0.117E+01    0.448E+00
DAV:   3    -0.170147505680E+03    0.15253E+00   -0.42421E-01  3484   0.270E+00    0.224E+00
DAV:   4    -0.170127503200E+03    0.20002E-01   -0.68559E-02  3610   0.970E-01    0.148E+00
DAV:   5    -0.170117842240E+03    0.96610E-02   -0.11149E-01  3413   0.118E+00    0.501E-01
DAV:   6    -0.170119381588E+03   -0.15393E-02   -0.17457E-02  3420   0.538E-01    0.347E-01
DAV:   7    -0.170124203658E+03   -0.48221E-02   -0.34052E-03  3726   0.256E-01    0.143E-01
DAV:   8    -0.170128945502E+03   -0.47418E-02   -0.12884E-03  3740   0.134E-01    0.670E-02
DAV:   9    -0.170130567573E+03   -0.16221E-02   -0.17528E-04  3688   0.578E-02    0.349E-02
DAV:  10    -0.170131204979E+03   -0.63741E-03   -0.41149E-05  3509   0.292E-02    0.183E-02
DAV:  11    -0.170131870457E+03   -0.66548E-03   -0.53921E-05  3456   0.280E-02    0.121E-02
DAV:  12    -0.170132232343E+03   -0.36189E-03   -0.31347E-05  3745   0.182E-02    0.923E-03
DAV:  13    -0.170132571403E+03   -0.33906E-03   -0.37461E-05  3451   0.183E-02    0.411E-03
DAV:  14    -0.170132703650E+03   -0.13225E-03   -0.10782E-05  3446   0.104E-02    0.266E-03
DAV:  15    -0.170132768582E+03   -0.64932E-04   -0.28516E-06  2937   0.692E-03    0.168E-03
DAV:  16    -0.170132815254E+03   -0.46672E-04   -0.16231E-06  2860   0.475E-03    0.109E-03
DAV:  17    -0.170132837446E+03   -0.22192E-04   -0.85855E-07  2560   0.333E-03    0.659E-04
DAV:  18    -0.170132848391E+03   -0.10946E-04   -0.59812E-07  2434   0.248E-03    0.414E-04
DAV:  19    -0.170132852447E+03   -0.40553E-05   -0.23974E-07  2474   0.177E-03    0.328E-04
DAV:  20    -0.170132858314E+03   -0.58668E-05   -0.20120E-07  2342   0.135E-03    0.269E-04
DAV:  21    -0.170132860864E+03   -0.25499E-05   -0.12064E-07  2432   0.119E-03    0.220E-04
DAV:  22    -0.170132862366E+03   -0.15026E-05   -0.72003E-08  2252   0.856E-04    0.207E-04
DAV:  23    -0.170132863702E+03   -0.13361E-05   -0.49945E-08  2183   0.613E-04    0.198E-04
DAV:  24    -0.170132864343E+03   -0.64076E-06   -0.25426E-08  2086   0.410E-04
   3 F= -.17078593E+03 E0= -.17078165E+03  d E =0.319524E+00  mag=     0.1553
       N       E                     dE             d eps       ncg     rms          rms(c)
DAV:   1    -0.170579938446E+03   -0.44707E+00   -0.24981E+02  3172   0.562E+01    0.376E+00
DAV:   2    -0.171522149333E+03   -0.94221E+00   -0.11195E+01  3307   0.995E+00    0.345E+00
DAV:   3    -0.171413487243E+03    0.10866E+00   -0.23687E-01  3631   0.196E+00    0.192E+00
DAV:   4    -0.171379993439E+03    0.33494E-01   -0.54780E-02  3607   0.882E-01    0.102E+00
DAV:   5    -0.171366063775E+03    0.13930E-01   -0.48509E-02  3394   0.836E-01    0.220E-01
DAV:   6    -0.171377491643E+03   -0.11428E-01   -0.70395E-03  3546   0.373E-01    0.113E-01
DAV:   7    -0.171381638453E+03   -0.41468E-02   -0.73349E-04  3680   0.103E-01    0.693E-02
DAV:   8    -0.171387618387E+03   -0.59799E-02   -0.90658E-04  3673   0.101E-01    0.393E-02
DAV:   9    -0.171388589695E+03   -0.97131E-03   -0.14011E-04  3961   0.406E-02    0.271E-02
DAV:  10    -0.171389241878E+03   -0.65218E-03   -0.68259E-05  3705   0.309E-02    0.135E-02
DAV:  11    -0.171389632590E+03   -0.39071E-03   -0.46766E-05  3537   0.235E-02    0.999E-03
DAV:  12    -0.171389791531E+03   -0.15894E-03   -0.10372E-05  3295   0.117E-02    0.646E-03
DAV:  13    -0.171389982123E+03   -0.19059E-03   -0.80757E-06  3264   0.960E-03    0.344E-03
DAV:  14    -0.171390132462E+03   -0.15034E-03   -0.95429E-06  2977   0.100E-02    0.206E-03
DAV:  15    -0.171390187380E+03   -0.54918E-04   -0.27778E-06  3318   0.530E-03    0.158E-03
DAV:  16    -0.171390210988E+03   -0.23608E-04   -0.96072E-07  2441   0.366E-03    0.101E-03
DAV:  17    -0.171390225130E+03   -0.14142E-04   -0.92790E-07  2622   0.301E-03    0.705E-04
DAV:  18    -0.171390233333E+03   -0.82023E-05   -0.27674E-07  2412   0.191E-03    0.465E-04
DAV:  19    -0.171390242095E+03   -0.87628E-05   -0.28189E-07  2462   0.138E-03    0.335E-04
DAV:  20    -0.171390245142E+03   -0.30471E-05   -0.11038E-07  2542   0.108E-03    0.232E-04
DAV:  21    -0.171390247220E+03   -0.20776E-05   -0.81053E-08  2444   0.854E-04    0.204E-04
DAV:  22    -0.171390248520E+03   -0.12998E-05   -0.57189E-08  2446   0.601E-04    0.193E-04
DAV:  23    -0.171390249212E+03   -0.69216E-06   -0.27922E-08  2247   0.457E-04
   4 F= -.17204365E+03 E0= -.17204210E+03  d E =-.938200E+00  mag=     0.0223
       N       E                     dE             d eps       ncg     rms          rms(c)
DAV:   1    -0.166966061428E+03    0.44242E+01   -0.10971E+03  3172   0.114E+02    0.987E+00
DAV:   2    -0.174460786071E+03   -0.74947E+01   -0.82116E+01  3432   0.270E+01    0.833E+00
DAV:   3    -0.173839232351E+03    0.62155E+00   -0.18030E+00  3692   0.497E+00    0.525E+00
DAV:   4    -0.173593946282E+03    0.24529E+00   -0.13303E+00  3789   0.437E+00    0.166E+00
DAV:   5    -0.173575020241E+03    0.18926E-01   -0.64875E-02  3901   0.160E+00    0.736E-01
DAV:   6    -0.173576458854E+03   -0.14386E-02   -0.26670E-02  3638   0.612E-01    0.281E-01
DAV:   7    -0.173576282826E+03    0.17603E-03   -0.60143E-03  3819   0.395E-01    0.108E-01
DAV:   8    -0.173576683441E+03   -0.40062E-03   -0.10508E-03  3724   0.119E-01    0.803E-02
DAV:   9    -0.173577196845E+03   -0.51340E-03   -0.54683E-04  4280   0.135E-01    0.413E-02
DAV:  10    -0.173577713942E+03   -0.51710E-03   -0.25237E-04  3715   0.683E-02    0.208E-02
DAV:  11    -0.173578408274E+03   -0.69433E-03   -0.12482E-04  3634   0.390E-02    0.137E-02
DAV:  12    -0.173578898247E+03   -0.48997E-03   -0.51220E-05  3720   0.281E-02    0.640E-03
DAV:  13    -0.173579128653E+03   -0.23041E-03   -0.21839E-05  3792   0.172E-02    0.508E-03
DAV:  14    -0.173579263146E+03   -0.13449E-03   -0.46411E-06  3577   0.876E-03    0.293E-03
DAV:  15    -0.173579393519E+03   -0.13037E-03   -0.50933E-06  3329   0.757E-03    0.216E-03
DAV:  16    -0.173579444212E+03   -0.50693E-04   -0.12393E-06  2852   0.370E-03    0.120E-03
DAV:  17    -0.173579469760E+03   -0.25548E-04   -0.60884E-07  2530   0.244E-03    0.703E-04
DAV:  18    -0.173579484517E+03   -0.14757E-04   -0.47576E-07  2609   0.197E-03    0.464E-04
DAV:  19    -0.173579489895E+03   -0.53777E-05   -0.18112E-07  2474   0.132E-03    0.324E-04
DAV:  20    -0.173579493273E+03   -0.33782E-05   -0.15244E-07  2338   0.122E-03    0.294E-04
DAV:  21    -0.173579495047E+03   -0.17735E-05   -0.11394E-07  2474   0.914E-04    0.257E-04
DAV:  22    -0.173579495702E+03   -0.65513E-06   -0.39807E-08  2579   0.639E-04
   5 F= -.17421815E+03 E0= -.17421815E+03  d E =-.311270E+01  mag=    -0.0000
       N       E                     dE             d eps       ncg     rms          rms(c)
DAV:   1    -0.172400584945E+03    0.11789E+01   -0.28944E+02  3172   0.603E+01    0.402E+00
DAV:   2    -0.173582363337E+03   -0.11818E+01   -0.12696E+01  3640   0.102E+01    0.290E+00
DAV:   3    -0.173512735038E+03    0.69628E-01   -0.19729E-01  3640   0.167E+00    0.188E+00
DAV:   4    -0.173479635338E+03    0.33100E-01   -0.13129E-01  3432   0.145E+00    0.563E-01
DAV:   5    -0.173478144110E+03    0.14912E-02   -0.17854E-02  3823   0.699E-01    0.170E-01
DAV:   6    -0.173478955742E+03   -0.81163E-03   -0.64412E-03  3640   0.338E-01    0.108E-01
DAV:   7    -0.173479272698E+03   -0.31696E-03   -0.11809E-03  3683   0.175E-01    0.445E-02
DAV:   8    -0.173479728267E+03   -0.45557E-03   -0.27367E-04  3585   0.606E-02    0.414E-02
DAV:   9    -0.173480010800E+03   -0.28253E-03   -0.20296E-04  4003   0.768E-02    0.121E-02
DAV:  10    -0.173480367163E+03   -0.35636E-03   -0.83453E-05  3546   0.318E-02    0.142E-02
DAV:  11    -0.173480546369E+03   -0.17921E-03   -0.12521E-05  3694   0.103E-02    0.958E-03
DAV:  12    -0.173480724376E+03   -0.17801E-03   -0.21149E-05  3530   0.138E-02    0.334E-03
DAV:  13    -0.173480789203E+03   -0.64827E-04   -0.29943E-06  3006   0.510E-03    0.209E-03
DAV:  14    -0.173480865980E+03   -0.76777E-04   -0.43110E-06  3154   0.528E-03    0.168E-03
DAV:  15    -0.173480886522E+03   -0.20542E-04   -0.69156E-07  2596   0.313E-03    0.104E-03
DAV:  16    -0.173480906289E+03   -0.19767E-04   -0.96903E-07  2504   0.310E-03    0.969E-04
DAV:  17    -0.173480913947E+03   -0.76580E-05   -0.17628E-07  2382   0.163E-03    0.797E-04
DAV:  18    -0.173480924008E+03   -0.10061E-04   -0.36104E-07  2382   0.242E-03    0.422E-04
DAV:  19    -0.173480925718E+03   -0.17108E-05   -0.10633E-07  2382   0.129E-03    0.495E-04
DAV:  20    -0.173480927455E+03   -0.17363E-05   -0.74544E-08  2354   0.123E-03    0.307E-04
DAV:  21    -0.173480928462E+03   -0.10074E-05   -0.66487E-08  2374   0.103E-03    0.270E-04
DAV:  22    -0.173480928759E+03   -0.29661E-06   -0.19925E-08  2048   0.541E-04
   6 F= -.17411763E+03 E0= -.17411763E+03  d E =-.301218E+01  mag=     0.0000
       N       E                     dE             d eps       ncg     rms          rms(c)
DAV:   1    -0.173368624989E+03    0.11230E+00   -0.12003E+02  3322   0.380E+01    0.308E+00
DAV:   2    -0.173754564290E+03   -0.38594E+00   -0.50174E+00  3610   0.653E+00    0.178E+00
DAV:   3    -0.173714784191E+03    0.39780E-01   -0.10185E-01  3620   0.137E+00    0.101E+00
DAV:   4    -0.173711474693E+03    0.33095E-02   -0.97262E-02  3600   0.113E+00    0.433E-01
DAV:   5    -0.173709826865E+03    0.16478E-02   -0.28908E-02  3620   0.601E-01    0.136E-01
DAV:   6    -0.173709945263E+03   -0.11840E-03   -0.19267E-03  3312   0.173E-01    0.570E-02
DAV:   7    -0.173710334188E+03   -0.38893E-03   -0.20882E-04  3550   0.542E-02    0.337E-02
DAV:   8    -0.173710609283E+03   -0.27509E-03   -0.74991E-05  3582   0.367E-02    0.112E-02
DAV:   9    -0.173710811532E+03   -0.20225E-03   -0.37157E-05  3620   0.192E-02    0.899E-03
DAV:  10    -0.173711052147E+03   -0.24061E-03   -0.27375E-05  3620   0.131E-02    0.647E-03
DAV:  11    -0.173711166254E+03   -0.11411E-03   -0.15881E-05  3604   0.119E-02    0.193E-03
DAV:  12    -0.173711215522E+03   -0.49268E-04   -0.35256E-06  3412   0.510E-03    0.159E-03
DAV:  13    -0.173711250636E+03   -0.35114E-04   -0.19841E-06  2836   0.418E-03    0.893E-04
DAV:  14    -0.173711277123E+03   -0.26487E-04   -0.27391E-06  3204   0.501E-03    0.552E-04
DAV:  15    -0.173711283906E+03   -0.67829E-05   -0.14189E-06  2772   0.570E-03    0.430E-04
DAV:  16    -0.173711291427E+03   -0.75210E-05   -0.10069E-06  2500   0.435E-03    0.357E-04
DAV:  17    -0.173711293562E+03   -0.21354E-05   -0.17009E-07  2372   0.165E-03    0.262E-04
DAV:  18    -0.173711294764E+03   -0.12021E-05   -0.54048E-08  2356   0.895E-04    0.263E-04
DAV:  19    -0.173711295439E+03   -0.67473E-06   -0.29806E-08  2228   0.648E-04
   7 F= -.17434903E+03 E0= -.17434903E+03  d E =-.324358E+01  mag=    -0.0000
       N       E                     dE             d eps       ncg     rms          rms(c)
DAV:   1    -0.173711383833E+03   -0.89069E-04   -0.43536E+00  3172   0.724E+00    0.475E-01
DAV:   2    -0.173721237391E+03   -0.98536E-02   -0.12013E-01  3630   0.109E+00    0.271E-01
DAV:   3    -0.173720594222E+03    0.64317E-03   -0.15869E-03  3614   0.163E-01    0.171E-01
DAV:   4    -0.173720498944E+03    0.95278E-04   -0.15114E-03  3428   0.149E-01    0.413E-02
DAV:   5    -0.173720494676E+03    0.42681E-05   -0.28349E-04  3652   0.658E-02    0.208E-02
DAV:   6    -0.173720505512E+03   -0.10836E-04   -0.48769E-05  3402   0.234E-02    0.124E-02
DAV:   7    -0.173720523731E+03   -0.18219E-04   -0.12952E-05  3312   0.163E-02    0.519E-03
DAV:   8    -0.173720536107E+03   -0.12376E-04   -0.15960E-06  3092   0.625E-03    0.324E-03
DAV:   9    -0.173720552026E+03   -0.15919E-04   -0.23880E-06  3144   0.644E-03    0.160E-03
DAV:  10    -0.173720566515E+03   -0.14489E-04   -0.75390E-07  2548   0.259E-03    0.102E-03
DAV:  11    -0.173720578137E+03   -0.11622E-04   -0.75768E-07  2676   0.214E-03    0.611E-04
DAV:  12    -0.173720582846E+03   -0.47085E-05   -0.27111E-07  2372   0.205E-03    0.378E-04
DAV:  13    -0.173720586907E+03   -0.40610E-05   -0.35573E-07  2368   0.233E-03    0.326E-04
DAV:  14    -0.173720588640E+03   -0.17331E-05   -0.23937E-07  2372   0.205E-03    0.366E-04
DAV:  15    -0.173720589719E+03   -0.10791E-05   -0.10703E-07  2372   0.114E-03    0.279E-04
DAV:  16    -0.173720590427E+03   -0.70771E-06   -0.36704E-08  2372   0.641E-04
   8 F= -.17435807E+03 E0= -.17435807E+03  d E =-.325262E+01  mag=     0.0000
       N       E                     dE             d eps       ncg     rms          rms(c)
DAV:   1    -0.173740799686E+03   -0.20210E-01   -0.45003E+02  3220   0.787E+01    0.524E+00
DAV:   2    -0.175429687762E+03   -0.16889E+01   -0.21693E+01  3432   0.139E+01    0.357E+00
DAV:   3    -0.175299234036E+03    0.13045E+00   -0.43901E-01  3828   0.255E+00    0.234E+00
DAV:   4    -0.175202203734E+03    0.97030E-01   -0.42962E-01  3640   0.275E+00    0.663E-01
DAV:   5    -0.175196066754E+03    0.61370E-02   -0.67804E-02  3736   0.976E-01    0.282E-01
DAV:   6    -0.175195980104E+03    0.86650E-04   -0.12994E-02  3640   0.414E-01    0.144E-01
DAV:   7    -0.175196602669E+03   -0.62256E-03   -0.12629E-03  3976   0.164E-01    0.879E-02
DAV:   8    -0.175198184553E+03   -0.15819E-02   -0.13830E-03  3590   0.128E-01    0.499E-02
DAV:   9    -0.175199034853E+03   -0.85030E-03   -0.64885E-04  4026   0.998E-02    0.310E-02
DAV:  10    -0.175200031324E+03   -0.99647E-03   -0.66763E-04  3480   0.836E-02    0.390E-02
DAV:  11    -0.175200408808E+03   -0.37748E-03   -0.29800E-04  3640   0.692E-02    0.139E-02
DAV:  12    -0.175200529768E+03   -0.12096E-03   -0.56146E-05  3608   0.262E-02    0.927E-03
DAV:  13    -0.175200622776E+03   -0.93008E-04   -0.30923E-05  3460   0.237E-02    0.786E-03
DAV:  14    -0.175200640768E+03   -0.17992E-04   -0.12675E-05  3560   0.180E-02    0.352E-03
DAV:  15    -0.175200645457E+03   -0.46889E-05   -0.61821E-06  3662   0.122E-02    0.271E-03
DAV:  16    -0.175200665202E+03   -0.19745E-04   -0.16248E-05  3400   0.212E-02    0.163E-03
DAV:  17    -0.175200660292E+03    0.49098E-05   -0.14091E-05  3362   0.187E-02    0.184E-03
DAV:  18    -0.175200663280E+03   -0.29884E-05   -0.19917E-06  2976   0.724E-03    0.830E-04
DAV:  19    -0.175200669594E+03   -0.63132E-05   -0.87304E-07  2648   0.422E-03    0.816E-04
DAV:  20    -0.175200673234E+03   -0.36407E-05   -0.38881E-07  2484   0.284E-03    0.439E-04
DAV:  21    -0.175200675348E+03   -0.21140E-05   -0.32776E-07  2528   0.236E-03    0.329E-04
DAV:  22    -0.175200677447E+03   -0.20984E-05   -0.11330E-07  2312   0.123E-03    0.269E-04
DAV:  23    -0.175200678394E+03   -0.94727E-06   -0.42796E-08  2292   0.755E-04
   9 F= -.17583662E+03 E0= -.17583662E+03  d E =-.147855E+01  mag=     0.0000
       N       E                     dE             d eps       ncg     rms          rms(c)
DAV:   1    -0.175203436750E+03   -0.27593E-02   -0.15050E+00  3212   0.428E+00    0.233E-01
DAV:   2    -0.175205499319E+03   -0.20626E-02   -0.33010E-02  3520   0.579E-01    0.144E-01
DAV:   3    -0.175205223757E+03    0.27556E-03   -0.11672E-03  4446   0.117E-01    0.102E-01
DAV:   4    -0.175204979702E+03    0.24406E-03   -0.46425E-04  3540   0.102E-01    0.218E-02
DAV:   5    -0.175204981455E+03   -0.17534E-05   -0.13977E-04  3640   0.392E-02    0.131E-02
DAV:   6    -0.175204996834E+03   -0.15379E-04   -0.10273E-05  3560   0.115E-02    0.727E-03
DAV:   7    -0.175205029811E+03   -0.32977E-04   -0.52481E-06  3490   0.841E-03    0.296E-03
DAV:   8    -0.175205063741E+03   -0.33930E-04   -0.35997E-06  3200   0.583E-03    0.273E-03
DAV:   9    -0.175205102374E+03   -0.38633E-04   -0.38067E-06  3094   0.593E-03    0.130E-03
DAV:  10    -0.175205123129E+03   -0.20756E-04   -0.26693E-06  3070   0.558E-03    0.745E-04
DAV:  11    -0.175205132502E+03   -0.93730E-05   -0.17499E-06  2916   0.572E-03    0.650E-04
DAV:  12    -0.175205136060E+03   -0.35582E-05   -0.10672E-06  2904   0.472E-03    0.489E-04
DAV:  13    -0.175205139660E+03   -0.35991E-05   -0.72496E-07  2630   0.364E-03    0.328E-04
DAV:  14    -0.175205140997E+03   -0.13378E-05   -0.24024E-07  2392   0.196E-03    0.277E-04
DAV:  15    -0.175205141802E+03   -0.80443E-06   -0.10669E-07  2352   0.125E-03
  10 F= -.17584094E+03 E0= -.17584094E+03  d E =-.148287E+01  mag=     0.0000
       N       E                     dE             d eps       ncg     rms          rms(c)
DAV:   1    -0.175370989234E+03   -0.16585E+00   -0.18765E+02  3172   0.582E+01    0.362E+00
DAV:   2    -0.175629326393E+03   -0.25834E+00   -0.57647E+00  3698   0.970E+00    0.204E+00
DAV:   3    -0.175563386771E+03    0.65940E-01   -0.28737E-01  3912   0.243E+00    0.116E+00
DAV:   4    -0.175546379313E+03    0.17007E-01   -0.65348E-02  3656   0.118E+00    0.442E-01
DAV:   5    -0.175546409182E+03   -0.29869E-04   -0.12264E-02  3768   0.521E-01    0.130E-01
DAV:   6    -0.175546552068E+03   -0.14289E-03   -0.17092E-03  4014   0.178E-01    0.632E-02
DAV:   7    -0.175546689829E+03   -0.13776E-03   -0.20744E-04  3598   0.615E-02    0.282E-02
DAV:   8    -0.175546842094E+03   -0.15226E-03   -0.42709E-05  3816   0.289E-02    0.107E-02
DAV:   9    -0.175546974251E+03   -0.13216E-03   -0.20007E-05  3806   0.183E-02    0.547E-03
DAV:  10    -0.175547073726E+03   -0.99475E-04   -0.72455E-06  3460   0.916E-03    0.361E-03
DAV:  11    -0.175547180282E+03   -0.10656E-03   -0.10315E-05  3200   0.843E-03    0.215E-03
DAV:  12    -0.175547237497E+03   -0.57214E-04   -0.70161E-06  3420   0.667E-03    0.157E-03
DAV:  13    -0.175547266196E+03   -0.28699E-04   -0.37172E-06  3252   0.532E-03    0.899E-04
DAV:  14    -0.175547277173E+03   -0.10977E-04   -0.11150E-06  3062   0.355E-03    0.617E-04
DAV:  15    -0.175547284461E+03   -0.72877E-05   -0.12061E-06  2759   0.456E-03    0.506E-04
DAV:  16    -0.175547286248E+03   -0.17874E-05   -0.11747E-06  2542   0.464E-03    0.449E-04
DAV:  17    -0.175547287552E+03   -0.13038E-05   -0.90718E-07  2490   0.396E-03    0.290E-04
DAV:  18    -0.175547288295E+03   -0.74336E-06   -0.32288E-07  2572   0.209E-03
  11 F= -.17616371E+03 E0= -.17616280E+03  d E =-.322769E+00  mag=    -0.0000
       N       E                     dE             d eps       ncg     rms          rms(c)
DAV:   1    -0.175686653588E+03   -0.13937E+00   -0.26964E+01  3254   0.219E+01    0.146E+00
DAV:   2    -0.175708699598E+03   -0.22046E-01   -0.73139E-01  3580   0.357E+00    0.772E-01
DAV:   3    -0.175698043413E+03    0.10656E-01   -0.41147E-02  3978   0.963E-01    0.398E-01
DAV:   4    -0.175696222942E+03    0.18205E-02   -0.13585E-02  3504   0.523E-01    0.128E-01
DAV:   5    -0.175696252299E+03   -0.29357E-04   -0.18326E-03  3848   0.205E-01    0.522E-02
DAV:   6    -0.175696287962E+03   -0.35663E-04   -0.29955E-04  3808   0.742E-02    0.267E-02
DAV:   7    -0.175696311686E+03   -0.23724E-04   -0.27361E-05  3630   0.256E-02    0.121E-02
DAV:   8    -0.175696337940E+03   -0.26254E-04   -0.57881E-06  3640   0.122E-02    0.435E-03
DAV:   9    -0.175696360395E+03   -0.22455E-04   -0.40091E-06  3416   0.930E-03    0.205E-03
DAV:  10    -0.175696375175E+03   -0.14780E-04   -0.62029E-07  2388   0.352E-03    0.142E-03
DAV:  11    -0.175696400814E+03   -0.25639E-04   -0.29224E-06  3164   0.524E-03    0.136E-03
DAV:  12    -0.175696408059E+03   -0.72451E-05   -0.99821E-07  2814   0.479E-03    0.667E-04
DAV:  13    -0.175696415923E+03   -0.78642E-05   -0.20954E-06  3134   0.632E-03    0.125E-03
DAV:  14    -0.175696417077E+03   -0.11533E-05   -0.10148E-06  2766   0.473E-03    0.830E-04
DAV:  15    -0.175696418970E+03   -0.18934E-05   -0.42918E-07  2434   0.306E-03    0.514E-04
DAV:  16    -0.175696420452E+03   -0.14816E-05   -0.17589E-07  2312   0.187E-03    0.394E-04
DAV:  17    -0.175696421496E+03   -0.10441E-05   -0.80969E-08  2292   0.112E-03    0.220E-04
DAV:  18    -0.175696422074E+03   -0.57824E-06   -0.24052E-08  2302   0.492E-04
  12 F= -.17632433E+03 E0= -.17632431E+03  d E =-.483390E+00  mag=    -0.0000
       N       E                     dE             d eps       ncg     rms          rms(c)
DAV:   1    -0.176300099270E+03   -0.60368E+00   -0.27966E+01  3172   0.175E+01    0.113E+00
DAV:   2    -0.176352885363E+03   -0.52786E-01   -0.63136E-01  3436   0.263E+00    0.613E-01
DAV:   3    -0.176349757858E+03    0.31275E-02   -0.10795E-02  3774   0.388E-01    0.353E-01
DAV:   4    -0.176350010953E+03   -0.25310E-03   -0.71901E-03  3975   0.289E-01    0.108E-01
DAV:   5    -0.176349908039E+03    0.10291E-03   -0.16530E-03  3646   0.134E-01    0.419E-02
DAV:   6    -0.176349964244E+03   -0.56205E-04   -0.20005E-04  3762   0.425E-02    0.217E-02
DAV:   7    -0.176350015058E+03   -0.50814E-04   -0.30260E-05  3520   0.253E-02    0.974E-03
DAV:   8    -0.176350074105E+03   -0.59047E-04   -0.83238E-06  3492   0.108E-02    0.692E-03
DAV:   9    -0.176350182451E+03   -0.10835E-03   -0.17738E-05  3712   0.183E-02    0.465E-03
DAV:  10    -0.176350236691E+03   -0.54240E-04   -0.57245E-06  3718   0.913E-03    0.489E-03
DAV:  11    -0.176350291084E+03   -0.54393E-04   -0.70214E-06  3388   0.105E-02    0.218E-03
DAV:  12    -0.176350306498E+03   -0.15414E-04   -0.21519E-06  3114   0.781E-03    0.105E-03
DAV:  13    -0.176350320880E+03   -0.14382E-04   -0.20689E-06  3131   0.720E-03    0.117E-03
DAV:  14    -0.176350327030E+03   -0.61497E-05   -0.14439E-06  2758   0.648E-03    0.628E-04
DAV:  15    -0.176350332269E+03   -0.52395E-05   -0.83773E-07  2479   0.458E-03    0.673E-04
DAV:  16    -0.176350334742E+03   -0.24730E-05   -0.18654E-07  2411   0.203E-03    0.444E-04
DAV:  17    -0.176350336645E+03   -0.19028E-05   -0.17075E-07  2314   0.195E-03    0.470E-04
DAV:  18    -0.176350337490E+03   -0.84495E-06   -0.63088E-08  2218   0.113E-03
  13 F= -.17696287E+03 E0= -.17696286E+03  d E =-.638540E+00  mag=    -0.0000
       N       E                     dE             d eps       ncg     rms          rms(c)
DAV:   1    -0.175057512101E+03    0.12928E+01   -0.26081E+02  3238   0.547E+01    0.620E+00
DAV:   2    -0.176086583569E+03   -0.10291E+01   -0.11256E+01  3454   0.928E+00    0.352E+00
DAV:   3    -0.175970689136E+03    0.11589E+00   -0.24725E-01  3700   0.160E+00    0.221E+00
DAV:   4    -0.175920244575E+03    0.50445E-01   -0.33993E-01  3628   0.175E+00    0.406E-01
DAV:   5    -0.175919467360E+03    0.77721E-03   -0.37870E-02  3584   0.591E-01    0.223E-01
DAV:   6    -0.175919289941E+03    0.17742E-03   -0.80357E-03  3802   0.221E-01    0.923E-02
DAV:   7    -0.175919313098E+03   -0.23156E-04   -0.64690E-04  3704   0.881E-02    0.464E-02
DAV:   8    -0.175919536616E+03   -0.22352E-03   -0.23125E-04  3534   0.632E-02    0.216E-02
DAV:   9    -0.175919721855E+03   -0.18524E-03   -0.34589E-05  3674   0.227E-02    0.983E-03
DAV:  10    -0.175920013548E+03   -0.29169E-03   -0.51079E-05  3524   0.229E-02    0.101E-02
DAV:  11    -0.175920240562E+03   -0.22701E-03   -0.23724E-05  3660   0.219E-02    0.633E-03
DAV:  12    -0.175920362681E+03   -0.12212E-03   -0.17100E-05  3640   0.168E-02    0.502E-03
DAV:  13    -0.175920412896E+03   -0.50215E-04   -0.11512E-05  3358   0.185E-02    0.199E-03
DAV:  14    -0.175920442886E+03   -0.29990E-04   -0.14723E-05  3332   0.188E-02    0.151E-03
DAV:  15    -0.175920462729E+03   -0.19843E-04   -0.13050E-05  3170   0.173E-02    0.111E-03
DAV:  16    -0.175920468190E+03   -0.54613E-05   -0.33321E-06  2979   0.883E-03    0.565E-04
DAV:  17    -0.175920477387E+03   -0.91969E-05   -0.65901E-07  2525   0.357E-03    0.636E-04
DAV:  18    -0.175920482453E+03   -0.50655E-05   -0.26347E-07  2391   0.214E-03    0.438E-04
DAV:  19    -0.175920485145E+03   -0.26921E-05   -0.15959E-07  2174   0.172E-03    0.274E-04
DAV:  20    -0.175920487341E+03   -0.21964E-05   -0.91602E-08  2195   0.114E-03    0.377E-04
DAV:  21    -0.175920488801E+03   -0.14595E-05   -0.36400E-08  2082   0.656E-04    0.280E-04
DAV:  22    -0.175920489326E+03   -0.52527E-06   -0.25243E-08  2072   0.702E-04
  14 F= -.17651620E+03 E0= -.17651620E+03  d E =-.191877E+00  mag=     0.0000
       N       E                     dE             d eps       ncg     rms          rms(c)
DAV:   1    -0.176401935551E+03   -0.48145E+00   -0.15524E+02  3292   0.426E+01    0.387E+00
DAV:   2    -0.176810534539E+03   -0.40860E+00   -0.58517E+00  3526   0.759E+00    0.261E+00
DAV:   3    -0.176748178362E+03    0.62356E-01   -0.18331E-01  3764   0.145E+00    0.155E+00
DAV:   4    -0.176741516769E+03    0.66616E-02   -0.11926E-01  3498   0.114E+00    0.496E-01
DAV:   5    -0.176739868454E+03    0.16483E-02   -0.37511E-02  3592   0.666E-01    0.147E-01
DAV:   6    -0.176740199990E+03   -0.33154E-03   -0.25255E-03  3624   0.178E-01    0.796E-02
DAV:   7    -0.176740360885E+03   -0.16090E-03   -0.82767E-04  3570   0.119E-01    0.318E-02
DAV:   8    -0.176740485081E+03   -0.12420E-03   -0.68149E-05  3680   0.329E-02    0.273E-02
DAV:   9    -0.176740588484E+03   -0.10340E-03   -0.78193E-05  3758   0.386E-02    0.822E-03
DAV:  10    -0.176740680640E+03   -0.92155E-04   -0.44926E-05  3696   0.200E-02    0.109E-02
DAV:  11    -0.176740771812E+03   -0.91172E-04   -0.13749E-05  3546   0.132E-02    0.763E-03
DAV:  12    -0.176740821814E+03   -0.50002E-04   -0.83843E-06  3738   0.967E-03    0.320E-03
DAV:  13    -0.176740850833E+03   -0.29019E-04   -0.48286E-06  3412   0.783E-03    0.150E-03
DAV:  14    -0.176740857345E+03   -0.65119E-05   -0.75986E-07  2744   0.419E-03    0.114E-03
DAV:  15    -0.176740859126E+03   -0.17816E-05   -0.53586E-07  2317   0.339E-03    0.115E-03
DAV:  16    -0.176740859860E+03   -0.73335E-06   -0.16424E-07  2174   0.191E-03
  15 F= -.17734797E+03 E0= -.17734797E+03  d E =-.102365E+01  mag=     0.0000
       N       E                     dE             d eps       ncg     rms          rms(c)
DAV:   1    -0.176628499429E+03    0.11236E+00   -0.66305E+01  3362   0.284E+01    0.226E+00
DAV:   2    -0.176818801999E+03   -0.19030E+00   -0.21479E+00  3442   0.437E+00    0.151E+00
DAV:   3    -0.176792998900E+03    0.25803E-01   -0.59422E-02  3670   0.792E-01    0.899E-01
DAV:   4    -0.176786481781E+03    0.65171E-02   -0.61406E-02  3566   0.732E-01    0.215E-01
DAV:   5    -0.176786057850E+03    0.42393E-03   -0.77980E-03  3736   0.267E-01    0.108E-01
DAV:   6    -0.176786080153E+03   -0.22302E-04   -0.11500E-03  3874   0.779E-02    0.430E-02
DAV:   7    -0.176786148696E+03   -0.68544E-04   -0.15356E-04  3646   0.427E-02    0.280E-02
DAV:   8    -0.176786210843E+03   -0.62146E-04   -0.57092E-05  3634   0.240E-02    0.966E-03
DAV:   9    -0.176786326120E+03   -0.11528E-03   -0.41376E-05  3576   0.209E-02    0.815E-03
DAV:  10    -0.176786402198E+03   -0.76078E-04   -0.55545E-06  3546   0.894E-03    0.646E-03
DAV:  11    -0.176786500227E+03   -0.98029E-04   -0.13416E-05  3486   0.140E-02    0.297E-03
DAV:  12    -0.176786539294E+03   -0.39068E-04   -0.73353E-06  3336   0.130E-02    0.354E-03
DAV:  13    -0.176786562963E+03   -0.23669E-04   -0.85689E-06  3178   0.150E-02    0.197E-03
DAV:  14    -0.176786571079E+03   -0.81165E-05   -0.57367E-06  2984   0.121E-02    0.109E-03
DAV:  15    -0.176786579849E+03   -0.87699E-05   -0.13759E-06  2598   0.599E-03    0.761E-04
DAV:  16    -0.176786583409E+03   -0.35596E-05   -0.27174E-07  2302   0.230E-03    0.646E-04
DAV:  17    -0.176786585444E+03   -0.20354E-05   -0.17901E-07  2198   0.171E-03    0.279E-04
DAV:  18    -0.176786587290E+03   -0.18452E-05   -0.15796E-07  2280   0.154E-03    0.288E-04
DAV:  19    -0.176786588102E+03   -0.81220E-06   -0.57673E-08  2082   0.864E-04
  16 F= -.17738566E+03 E0= -.17738566E+03  d E =-.106134E+01  mag=     0.0000
       N       E                     dE             d eps       ncg     rms          rms(c)
DAV:   1    -0.176897190188E+03   -0.11060E+00   -0.22720E+01  3352   0.162E+01    0.137E+00
DAV:   2    -0.176940463915E+03   -0.43274E-01   -0.62324E-01  3488   0.258E+00    0.901E-01
DAV:   3    -0.176932038075E+03    0.84258E-02   -0.23773E-02  3754   0.529E-01    0.501E-01
DAV:   4    -0.176931689785E+03    0.34829E-03   -0.14255E-02  3388   0.369E-01    0.163E-01
DAV:   5    -0.176931426393E+03    0.26339E-03   -0.48386E-03  3634   0.212E-01    0.530E-02
DAV:   6    -0.176931486555E+03   -0.60163E-04   -0.28741E-04  3646   0.613E-02    0.230E-02
DAV:   7    -0.176931548846E+03   -0.62291E-04   -0.65395E-05  3466   0.312E-02    0.134E-02
DAV:   8    -0.176931578638E+03   -0.29792E-04   -0.65884E-06  3466   0.115E-02    0.747E-03
DAV:   9    -0.176931627622E+03   -0.48984E-04   -0.17465E-05  3526   0.145E-02    0.387E-03
DAV:  10    -0.176931665137E+03   -0.37515E-04   -0.37373E-06  3554   0.821E-03    0.298E-03
DAV:  11    -0.176931691464E+03   -0.26327E-04   -0.38669E-06  3422   0.651E-03    0.227E-03
DAV:  12    -0.176931703745E+03   -0.12281E-04   -0.22209E-06  3139   0.681E-03    0.130E-03
DAV:  13    -0.176931708991E+03   -0.52460E-05   -0.13878E-06  2643   0.515E-03    0.103E-03
DAV:  14    -0.176931711076E+03   -0.20855E-05   -0.96368E-07  2520   0.427E-03    0.669E-04
DAV:  15    -0.176931712171E+03   -0.10944E-05   -0.59931E-07  2520   0.344E-03    0.277E-04
DAV:  16    -0.176931712726E+03   -0.55570E-06   -0.96345E-08  2075   0.125E-03
  17 F= -.17753519E+03 E0= -.17753518E+03  d E =-.121086E+01  mag=    -0.0000
       N       E                     dE             d eps       ncg     rms          rms(c)
DAV:   1    -0.176946337297E+03   -0.14625E-01   -0.20505E+00  3347   0.492E+00    0.383E-01
DAV:   2    -0.176950304183E+03   -0.39669E-02   -0.51949E-02  3560   0.737E-01    0.248E-01
DAV:   3    -0.176949653695E+03    0.65049E-03   -0.18249E-03  3680   0.143E-01    0.136E-01
DAV:   4    -0.176949651061E+03    0.26339E-05   -0.12144E-03  3648   0.105E-01    0.408E-02
DAV:   5    -0.176949632470E+03    0.18592E-04   -0.25439E-04  3619   0.478E-02    0.156E-02
DAV:   6    -0.176949638970E+03   -0.64997E-05   -0.17915E-05  3162   0.129E-02    0.665E-03
DAV:   7    -0.176949645420E+03   -0.64504E-05   -0.24012E-06  2812   0.672E-03    0.302E-03
DAV:   8    -0.176949649730E+03   -0.43102E-05   -0.62580E-07  2228   0.318E-03    0.139E-03
DAV:   9    -0.176949659852E+03   -0.10122E-04   -0.12658E-06  2858   0.475E-03    0.130E-03
DAV:  10    -0.176949663287E+03   -0.34348E-05   -0.33818E-07  2040   0.312E-03    0.117E-03
DAV:  11    -0.176949670249E+03   -0.69615E-05   -0.12340E-06  2728   0.536E-03    0.115E-03
DAV:  12    -0.176949672776E+03   -0.25272E-05   -0.76661E-07  2582   0.413E-03    0.101E-03
DAV:  13    -0.176949674369E+03   -0.15933E-05   -0.34534E-07  2000   0.290E-03    0.483E-04
DAV:  14    -0.176949675701E+03   -0.13321E-05   -0.18052E-07  2130   0.189E-03    0.431E-04
DAV:  15    -0.176949676514E+03   -0.81240E-06   -0.60439E-08  1990   0.949E-04
  18 F= -.17755175E+03 E0= -.17755175E+03  d E =-.122742E+01  mag=    -0.0000
       N       E                     dE             d eps       ncg     rms          rms(c)
DAV:   1    -0.177224147269E+03   -0.27447E+00   -0.14178E+01  3172   0.169E+01    0.166E+00
DAV:   2    -0.177195541136E+03    0.28606E-01   -0.50001E-01  4026   0.304E+00    0.896E-01
DAV:   3    -0.177174360163E+03    0.21181E-01   -0.80111E-02  3776   0.126E+00    0.338E-01
DAV:   4    -0.177172935221E+03    0.14249E-02   -0.20233E-02  3478   0.576E-01    0.149E-01
DAV:   5    -0.177172688448E+03    0.24677E-03   -0.20914E-03  3896   0.185E-01    0.691E-02
DAV:   6    -0.177172670031E+03    0.18417E-04   -0.32396E-04  3690   0.777E-02    0.283E-02
DAV:   7    -0.177172729444E+03   -0.59413E-04   -0.47335E-05  3706   0.351E-02    0.121E-02
DAV:   8    -0.177172814339E+03   -0.84895E-04   -0.17090E-05  3882   0.198E-02    0.643E-03
DAV:   9    -0.177172896336E+03   -0.81998E-04   -0.57458E-06  3570   0.110E-02    0.396E-03
DAV:  10    -0.177172988970E+03   -0.92633E-04   -0.52192E-06  3156   0.862E-03    0.295E-03
DAV:  11    -0.177173074884E+03   -0.85914E-04   -0.73988E-06  3146   0.109E-02    0.182E-03
DAV:  12    -0.177173110040E+03   -0.35156E-04   -0.37275E-06  3202   0.856E-03    0.140E-03
DAV:  13    -0.177173140051E+03   -0.30011E-04   -0.87390E-06  2924   0.150E-02    0.107E-03
DAV:  14    -0.177173145486E+03   -0.54356E-05   -0.66221E-06  3092   0.123E-02    0.103E-03
DAV:  15    -0.177173150379E+03   -0.48927E-05   -0.95258E-07  2756   0.495E-03    0.420E-04
DAV:  16    -0.177173156674E+03   -0.62943E-05   -0.45872E-07  2526   0.291E-03    0.549E-04
DAV:  17    -0.177173158080E+03   -0.14069E-05   -0.12325E-07  2402   0.157E-03    0.337E-04
DAV:  18    -0.177173159159E+03   -0.10782E-05   -0.99029E-08  2066   0.141E-03    0.289E-04
DAV:  19    -0.177173159963E+03   -0.80456E-06   -0.41588E-08  2270   0.787E-04
  19 F= -.17777717E+03 E0= -.17777717E+03  d E =-.225419E+00  mag=    -0.0000
       N       E                     dE             d eps       ncg     rms          rms(c)
DAV:   1    -0.177181227370E+03   -0.80682E-02   -0.28737E-01  3212   0.243E+00    0.223E-01
DAV:   2    -0.177180619574E+03    0.60780E-03   -0.10299E-02  3790   0.430E-01    0.130E-01
DAV:   3    -0.177180174555E+03    0.44502E-03   -0.17777E-03  3658   0.181E-01    0.516E-02
DAV:   4    -0.177180138208E+03    0.36347E-04   -0.39004E-04  3500   0.798E-02    0.293E-02
DAV:   5    -0.177180132164E+03    0.60435E-05   -0.43769E-05  3832   0.276E-02    0.124E-02
DAV:   6    -0.177180135720E+03   -0.35561E-05   -0.68710E-06  3602   0.113E-02    0.387E-03
DAV:   7    -0.177180142000E+03   -0.62802E-05   -0.84295E-07  2102   0.486E-03    0.140E-03
DAV:   8    -0.177180149208E+03   -0.72077E-05   -0.62722E-07  2228   0.337E-03    0.966E-04
DAV:   9    -0.177180156875E+03   -0.76664E-05   -0.37848E-07  2290   0.234E-03    0.591E-04
DAV:  10    -0.177180164900E+03   -0.80255E-05   -0.58967E-07  2484   0.238E-03    0.500E-04
DAV:  11    -0.177180171122E+03   -0.62223E-05   -0.89242E-07  2568   0.385E-03    0.339E-04
DAV:  12    -0.177180172916E+03   -0.17932E-05   -0.71238E-07  2548   0.350E-03    0.317E-04
DAV:  13    -0.177180173624E+03   -0.70815E-06   -0.10700E-07  2014   0.134E-03
  20 F= -.17778390E+03 E0= -.17778390E+03  d E =-.232154E+00  mag=     0.0000
       N       E                     dE             d eps       ncg     rms          rms(c)
DAV:   1    -0.177243154196E+03   -0.62981E-01   -0.17663E+00  3192   0.572E+00    0.488E-01
DAV:   2    -0.177241625192E+03    0.15290E-02   -0.48984E-02  3520   0.902E-01    0.300E-01
DAV:   3    -0.177239085950E+03    0.25392E-02   -0.46633E-03  3690   0.325E-01    0.118E-01
DAV:   4    -0.177238609129E+03    0.47682E-03   -0.10091E-03  3630   0.155E-01    0.394E-02
DAV:   5    -0.177238581012E+03    0.28117E-04   -0.11728E-04  3840   0.531E-02    0.173E-02
DAV:   6    -0.177238619524E+03   -0.38512E-04   -0.23199E-05  3658   0.213E-02    0.737E-03
DAV:   7    -0.177238664689E+03   -0.45165E-04   -0.46458E-06  3268   0.117E-02    0.478E-03
DAV:   8    -0.177238758143E+03   -0.93454E-04   -0.10844E-05  3310   0.139E-02    0.300E-03
DAV:   9    -0.177238831000E+03   -0.72857E-04   -0.60789E-06  3168   0.102E-02    0.164E-03
DAV:  10    -0.177238875698E+03   -0.44698E-04   -0.52700E-06  3158   0.972E-03    0.133E-03
DAV:  11    -0.177238901809E+03   -0.26111E-04   -0.80051E-06  3014   0.130E-02    0.834E-04
DAV:  12    -0.177238914455E+03   -0.12646E-04   -0.54118E-06  3030   0.103E-02    0.706E-04
DAV:  13    -0.177238920104E+03   -0.56497E-05   -0.95733E-07  2716   0.464E-03    0.391E-04
DAV:  14    -0.177238926253E+03   -0.61489E-05   -0.27756E-07  2302   0.223E-03    0.321E-04
DAV:  15    -0.177238928860E+03   -0.26062E-05   -0.10283E-07  2352   0.106E-03    0.250E-04
DAV:  16    -0.177238929763E+03   -0.90293E-06   -0.52413E-08  2120   0.976E-04
  21 F= -.17784377E+03 E0= -.17784377E+03  d E =-.598693E-01  mag=    -0.0000
       N       E                     dE             d eps       ncg     rms          rms(c)
DAV:   1    -0.177294906144E+03   -0.55977E-01   -0.57182E+00  3232   0.103E+01    0.881E-01
DAV:   2    -0.177289522255E+03    0.53839E-02   -0.15534E-01  3620   0.161E+00    0.541E-01
DAV:   3    -0.177281227875E+03    0.82944E-02   -0.15650E-02  3656   0.597E-01    0.208E-01
DAV:   4    -0.177279883126E+03    0.13447E-02   -0.33549E-03  3682   0.281E-01    0.731E-02
DAV:   5    -0.177279781217E+03    0.10191E-03   -0.36202E-04  3950   0.927E-02    0.317E-02
DAV:   6    -0.177279850245E+03   -0.69028E-04   -0.72228E-05  3668   0.382E-02    0.138E-02
DAV:   7    -0.177279952520E+03   -0.10228E-03   -0.19535E-05  3866   0.237E-02    0.874E-03
DAV:   8    -0.177280136827E+03   -0.18431E-03   -0.24516E-05  3554   0.214E-02    0.549E-03
DAV:   9    -0.177280287810E+03   -0.15098E-03   -0.16045E-05  3422   0.164E-02    0.337E-03
DAV:  10    -0.177280410526E+03   -0.12272E-03   -0.14676E-05  3380   0.166E-02    0.215E-03
DAV:  11    -0.177280483537E+03   -0.73011E-04   -0.27511E-05  3312   0.255E-02    0.145E-03
DAV:  12    -0.177280503501E+03   -0.19964E-04   -0.25103E-05  3259   0.241E-02    0.967E-04
DAV:  13    -0.177280516963E+03   -0.13462E-04   -0.50852E-06  3120   0.109E-02    0.650E-04
DAV:  14    -0.177280527144E+03   -0.10181E-04   -0.69026E-07  2610   0.388E-03    0.376E-04
DAV:  15    -0.177280533166E+03   -0.60216E-05   -0.31045E-07  2297   0.217E-03    0.376E-04
DAV:  16    -0.177280534585E+03   -0.14195E-05   -0.10236E-07  2416   0.154E-03    0.287E-04
DAV:  17    -0.177280536942E+03   -0.23568E-05   -0.11099E-07  2241   0.146E-03    0.368E-04
DAV:  18    -0.177280537826E+03   -0.88390E-06   -0.36869E-08  2206   0.809E-04
  22 F= -.17788741E+03 E0= -.17788741E+03  d E =-.103511E+00  mag=     0.0000
       N       E                     dE             d eps       ncg     rms          rms(c)
DAV:   1    -0.177321569311E+03   -0.41032E-01   -0.13388E+00  3222   0.529E+00    0.626E-01
DAV:   2    -0.177313755852E+03    0.78135E-02   -0.33143E-02  3624   0.807E-01    0.363E-01
DAV:   3    -0.177309259878E+03    0.44960E-02   -0.10144E-02  3572   0.443E-01    0.106E-01
DAV:   4    -0.177308966646E+03    0.29323E-03   -0.12842E-03  3736   0.160E-01    0.544E-02
DAV:   5    -0.177308909556E+03    0.57090E-04   -0.16312E-04  3812   0.606E-02    0.230E-02
DAV:   6    -0.177308939455E+03   -0.29899E-04   -0.52114E-05  3680   0.307E-02    0.931E-03
DAV:   7    -0.177308981976E+03   -0.42521E-04   -0.70057E-06  3710   0.136E-02    0.586E-03
DAV:   8    -0.177309073668E+03   -0.91692E-04   -0.11885E-05  3566   0.154E-02    0.361E-03
DAV:   9    -0.177309125307E+03   -0.51639E-04   -0.45951E-06  3289   0.103E-02    0.261E-03
DAV:  10    -0.177309199784E+03   -0.74477E-04   -0.10025E-05  3038   0.141E-02    0.164E-03
DAV:  11    -0.177309232559E+03   -0.32775E-04   -0.14049E-05  3270   0.179E-02    0.124E-03
DAV:  12    -0.177309252579E+03   -0.20020E-04   -0.11630E-05  2994   0.161E-02    0.768E-04
DAV:  13    -0.177309265882E+03   -0.13303E-04   -0.33177E-06  3219   0.844E-03    0.504E-04
DAV:  14    -0.177309275266E+03   -0.93846E-05   -0.51448E-07  2494   0.317E-03    0.331E-04
DAV:  15    -0.177309280489E+03   -0.52225E-05   -0.16615E-07  2337   0.143E-03    0.274E-04
DAV:  16    -0.177309281656E+03   -0.11674E-05   -0.84384E-08  2387   0.993E-04    0.231E-04
DAV:  17    -0.177309282328E+03   -0.67180E-06   -0.21721E-08  2119   0.489E-04
  23 F= -.17791765E+03 E0= -.17791765E+03  d E =-.302329E-01  mag=    -0.0000
       N       E                     dE             d eps       ncg     rms          rms(c)
DAV:   1    -0.177316681516E+03   -0.73999E-02   -0.41635E-01  3227   0.295E+00    0.349E-01
DAV:   2    -0.177314224679E+03    0.24568E-02   -0.10322E-02  3614   0.450E-01    0.203E-01
DAV:   3    -0.177312808910E+03    0.14158E-02   -0.31687E-03  3558   0.246E-01    0.591E-02
DAV:   4    -0.177312710104E+03    0.98805E-04   -0.39854E-04  3698   0.889E-02    0.303E-02
DAV:   5    -0.177312691437E+03    0.18668E-04   -0.50845E-05  3723   0.337E-02    0.126E-02
DAV:   6    -0.177312704239E+03   -0.12802E-04   -0.15715E-05  3664   0.168E-02    0.516E-03
DAV:   7    -0.177312722965E+03   -0.18726E-04   -0.18907E-06  2446   0.743E-03    0.323E-03
DAV:   8    -0.177312765210E+03   -0.42245E-04   -0.52308E-06  3226   0.935E-03    0.217E-03
DAV:   9    -0.177312790829E+03   -0.25619E-04   -0.14212E-06  2704   0.615E-03    0.134E-03
DAV:  10    -0.177312820896E+03   -0.30067E-04   -0.24574E-06  2830   0.585E-03    0.946E-04
DAV:  11    -0.177312834373E+03   -0.13477E-04   -0.16519E-06  2612   0.597E-03    0.637E-04
DAV:  12    -0.177312846131E+03   -0.11758E-04   -0.20139E-06  2578   0.629E-03    0.441E-04
DAV:  13    -0.177312851228E+03   -0.50976E-05   -0.92066E-07  2564   0.425E-03    0.338E-04
DAV:  14    -0.177312856114E+03   -0.48855E-05   -0.18896E-07  2292   0.174E-03    0.253E-04
DAV:  15    -0.177312857955E+03   -0.18409E-05   -0.73783E-08  2316   0.103E-03    0.246E-04
DAV:  16    -0.177312858570E+03   -0.61539E-06   -0.41133E-08  2024   0.791E-04
  24 F= -.17792206E+03 E0= -.17792206E+03  d E =-.346444E-01  mag=     0.0000
       N       E                     dE             d eps       ncg     rms          rms(c)
DAV:   1    -0.177337643058E+03   -0.24785E-01   -0.12865E+00  3252   0.518E+00    0.590E-01
DAV:   2    -0.177330971029E+03    0.66720E-02   -0.35550E-02  3724   0.842E-01    0.345E-01
DAV:   3    -0.177326995695E+03    0.39753E-02   -0.89443E-03  3546   0.423E-01    0.111E-01
DAV:   4    -0.177326647003E+03    0.34869E-03   -0.14366E-03  3714   0.166E-01    0.557E-02
DAV:   5    -0.177326581719E+03    0.65285E-04   -0.16678E-04  3788   0.630E-02    0.234E-02
DAV:   6    -0.177326601955E+03   -0.20237E-04   -0.57708E-05  3680   0.340E-02    0.975E-03
DAV:   7    -0.177326642244E+03   -0.40289E-04   -0.88960E-06  3786   0.165E-02    0.609E-03
DAV:   8    -0.177326728404E+03   -0.86160E-04   -0.10674E-05  3604   0.152E-02    0.357E-03
DAV:   9    -0.177326773459E+03   -0.45056E-04   -0.33735E-06  3140   0.796E-03    0.283E-03
DAV:  10    -0.177326847636E+03   -0.74176E-04   -0.62587E-06  3086   0.104E-02    0.155E-03
DAV:  11    -0.177326881219E+03   -0.33584E-04   -0.47553E-06  3138   0.978E-03    0.115E-03
DAV:  12    -0.177326906601E+03   -0.25382E-04   -0.69058E-06  2998   0.118E-02    0.741E-04
DAV:  13    -0.177326919527E+03   -0.12926E-04   -0.73633E-06  3070   0.119E-02    0.548E-04
DAV:  14    -0.177326926303E+03   -0.67753E-05   -0.21291E-06  2604   0.632E-03    0.333E-04
DAV:  15    -0.177326931362E+03   -0.50597E-05   -0.14780E-07  2312   0.148E-03    0.280E-04
DAV:  16    -0.177326933363E+03   -0.20008E-05   -0.63282E-08  2332   0.873E-04    0.234E-04
DAV:  17    -0.177326933864E+03   -0.50119E-06   -0.19316E-08  2157   0.576E-04
  25 F= -.17793749E+03 E0= -.17793749E+03  d E =-.154371E-01  mag=    -0.0000
       N       E                     dE             d eps       ncg     rms          rms(c)
DAV:   1    -0.177326939192E+03   -0.58288E-05   -0.13675E-05  3534   0.169E-02    0.193E-03
DAV:   2    -0.177326939160E+03    0.31787E-07   -0.33258E-07  2168   0.277E-03    0.113E-03
DAV:   3    -0.177326939273E+03   -0.11257E-06   -0.13459E-07  2005   0.173E-03    0.375E-04
DAV:   4    -0.177326939393E+03   -0.12039E-06   -0.32656E-08  2010   0.923E-04    0.277E-04
DAV:   5    -0.177326939521E+03   -0.12806E-06   -0.18294E-08  1985   0.699E-04    0.231E-04
DAV:   6    -0.177326939628E+03   -0.10661E-06   -0.22071E-08  2010   0.727E-04
  26 F= -.17793750E+03 E0= -.17793750E+03  d E =-.154384E-01  mag=    -0.0000
       N       E                     dE             d eps       ncg     rms          rms(c)
DAV:   1    -0.177329370344E+03   -0.24308E-02   -0.12246E-01  3332   0.141E+00    0.106E-01
DAV:   2    -0.177329500696E+03   -0.13035E-03   -0.34742E-03  3644   0.228E-01    0.604E-02
DAV:   3    -0.177329429764E+03    0.70932E-04   -0.13919E-04  3744   0.570E-02    0.306E-02
DAV:   4    -0.177329399504E+03    0.30260E-04   -0.52070E-05  3620   0.369E-02    0.809E-03
DAV:   5    -0.177329395837E+03    0.36670E-05   -0.91463E-06  3610   0.140E-02    0.485E-03
DAV:   6    -0.177329396264E+03   -0.42702E-06   -0.11520E-06  2184   0.549E-03
  27 F= -.17794007E+03 E0= -.17794007E+03  d E =-.257572E-02  mag=     0.0000
       N       E                     dE             d eps       ncg     rms          rms(c)
DAV:   1    -0.177329786830E+03   -0.39099E-03   -0.29840E-01  3212   0.220E+00    0.165E-01
DAV:   2    -0.177330088350E+03   -0.30152E-03   -0.84213E-03  3698   0.357E-01    0.943E-02
DAV:   3    -0.177329905103E+03    0.18325E-03   -0.34370E-04  3718   0.897E-02    0.478E-02
DAV:   4    -0.177329829901E+03    0.75202E-04   -0.12812E-04  3566   0.581E-02    0.128E-02
DAV:   5    -0.177329826381E+03    0.35202E-05   -0.23504E-05  3950   0.225E-02    0.771E-03
DAV:   6    -0.177329832407E+03   -0.60257E-05   -0.29406E-06  3064   0.849E-03    0.367E-03
DAV:   7    -0.177329844153E+03   -0.11746E-04   -0.11607E-06  2664   0.530E-03    0.194E-03
DAV:   8    -0.177329866008E+03   -0.21855E-04   -0.23639E-06  2906   0.758E-03    0.131E-03
DAV:   9    -0.177329881658E+03   -0.15650E-04   -0.16503E-06  2622   0.623E-03    0.897E-04
DAV:  10    -0.177329897995E+03   -0.16337E-04   -0.27894E-06  2897   0.817E-03    0.701E-04
DAV:  11    -0.177329903421E+03   -0.54260E-05   -0.25104E-06  2656   0.808E-03    0.522E-04
DAV:  12    -0.177329908503E+03   -0.50820E-05   -0.13747E-06  2517   0.584E-03    0.431E-04
DAV:  13    -0.177329912296E+03   -0.37936E-05   -0.26628E-07  2372   0.229E-03    0.411E-04
DAV:  14    -0.177329914132E+03   -0.18354E-05   -0.94894E-08  2286   0.152E-03    0.305E-04
DAV:  15    -0.177329914870E+03   -0.73835E-06   -0.55563E-08  2044   0.106E-03
  28 F= -.17794078E+03 E0= -.17794078E+03  d E =-.328069E-02  mag=    -0.0000
       N       E                     dE             d eps       ncg     rms          rms(c)
DAV:   1    -0.177330199052E+03   -0.28492E-03   -0.33924E-02  3342   0.742E-01    0.558E-02
DAV:   2    -0.177330227953E+03   -0.28901E-04   -0.95039E-04  3644   0.119E-01    0.319E-02
DAV:   3    -0.177330205306E+03    0.22647E-04   -0.38139E-05  3740   0.296E-02    0.163E-02
DAV:   4    -0.177330193699E+03    0.11607E-04   -0.14329E-05  3576   0.193E-02    0.424E-03
DAV:   5    -0.177330192625E+03    0.10738E-05   -0.25842E-06  3300   0.754E-03    0.253E-03
DAV:   6    -0.177330193808E+03   -0.11826E-05   -0.33284E-07  2154   0.294E-03    0.124E-03
DAV:   7    -0.177330196297E+03   -0.24892E-05   -0.23549E-07  2276   0.218E-03    0.660E-04
DAV:   8    -0.177330200247E+03   -0.39495E-05   -0.38754E-07  2152   0.314E-03    0.411E-04
DAV:   9    -0.177330203195E+03   -0.29489E-05   -0.54835E-07  2522   0.330E-03    0.458E-04
DAV:  10    -0.177330205039E+03   -0.18437E-05   -0.59114E-07  2388   0.368E-03    0.309E-04
DAV:  11    -0.177330207520E+03   -0.24813E-05   -0.43426E-07  2328   0.290E-03    0.480E-04
DAV:  12    -0.177330207902E+03   -0.38130E-06   -0.59474E-08  2126   0.108E-03
  29 F= -.17794101E+03 E0= -.17794101E+03  d E =-.351076E-02  mag=    -0.0000
       N       E                     dE             d eps       ncg     rms          rms(c)
DAV:   1    -0.177331403887E+03   -0.11964E-02   -0.11454E-01  3302   0.138E+00    0.799E-02
DAV:   2    -0.177331510179E+03   -0.10629E-03   -0.25509E-03  3676   0.200E-01    0.455E-02
DAV:   3    -0.177331478714E+03    0.31465E-04   -0.11411E-04  4180   0.477E-02    0.252E-02
DAV:   4    -0.177331473046E+03    0.56680E-05   -0.39901E-05  3632   0.283E-02    0.753E-03
DAV:   5    -0.177331473645E+03   -0.59894E-06   -0.55639E-06  3366   0.107E-02    0.309E-03
DAV:   6    -0.177331473975E+03   -0.33028E-06   -0.61947E-07  2024   0.383E-03
  30 F= -.17794230E+03 E0= -.17794230E+03  d E =-.129096E-02  mag=    -0.0000
       N       E                     dE             d eps       ncg     rms          rms(c)
DAV:   1    -0.177331879383E+03   -0.40574E-03   -0.16882E-01  3252   0.168E+00    0.971E-02
DAV:   2    -0.177332034727E+03   -0.15534E-03   -0.37659E-03  3700   0.244E-01    0.553E-02
DAV:   3    -0.177331985599E+03    0.49128E-04   -0.16888E-04  4194   0.581E-02    0.307E-02
DAV:   4    -0.177331975214E+03    0.10385E-04   -0.59301E-05  3530   0.343E-02    0.917E-03
DAV:   5    -0.177331976834E+03   -0.16198E-05   -0.83218E-06  3394   0.131E-02    0.379E-03
DAV:   6    -0.177331978468E+03   -0.16339E-05   -0.93973E-07  1980   0.473E-03    0.199E-03
DAV:   7    -0.177331981261E+03   -0.27930E-05   -0.37798E-07  2149   0.306E-03    0.790E-04
DAV:   8    -0.177331984149E+03   -0.28877E-05   -0.33418E-07  2109   0.256E-03    0.520E-04
DAV:   9    -0.177331987449E+03   -0.32999E-05   -0.64226E-07  2471   0.340E-03    0.396E-04
DAV:  10    -0.177331990406E+03   -0.29573E-05   -0.62461E-07  2511   0.324E-03    0.344E-04
DAV:  11    -0.177331991331E+03   -0.92539E-06   -0.10486E-07  2025   0.130E-03
  31 F= -.17794284E+03 E0= -.17794284E+03  d E =-.183871E-02  mag=     0.0000
       N       E                     dE             d eps       ncg     rms          rms(c)
DAV:   1    -0.177332641800E+03   -0.65139E-03   -0.34712E-02  3282   0.738E-01    0.384E-02
DAV:   2    -0.177332683355E+03   -0.41554E-04   -0.76093E-04  3612   0.104E-01    0.223E-02
DAV:   3    -0.177332678529E+03    0.48259E-05   -0.26200E-05  4037   0.224E-02    0.136E-02
DAV:   4    -0.177332679213E+03   -0.68436E-06   -0.95616E-06  3529   0.152E-02    0.392E-03
DAV:   5    -0.177332679843E+03   -0.63000E-06   -0.19236E-06  2936   0.597E-03    0.190E-03
DAV:   6    -0.177332680056E+03   -0.21260E-06   -0.35070E-07  2015   0.293E-03
  32 F= -.17794353E+03 E0= -.17794353E+03  d E =-.681236E-03  mag=     0.0000
       N       E                     dE             d eps       ncg     rms          rms(c)
DAV:   1    -0.177333449229E+03   -0.76939E-03   -0.31235E-01  3242   0.221E+00    0.115E-01
DAV:   2    -0.177333852501E+03   -0.40327E-03   -0.68601E-03  3682   0.314E-01    0.670E-02
DAV:   3    -0.177333796863E+03    0.55638E-04   -0.23504E-04  4104   0.670E-02    0.408E-02
DAV:   4    -0.177333779320E+03    0.17543E-04   -0.87249E-05  3686   0.456E-02    0.117E-02
DAV:   5    -0.177333781677E+03   -0.23569E-05   -0.17743E-05  3764   0.179E-02    0.563E-03
DAV:   6    -0.177333783420E+03   -0.17431E-05   -0.28465E-06  3025   0.781E-03    0.285E-03
DAV:   7    -0.177333785455E+03   -0.20355E-05   -0.32150E-07  2006   0.321E-03    0.153E-03
DAV:   8    -0.177333789021E+03   -0.35656E-05   -0.48293E-07  2236   0.317E-03    0.769E-04
DAV:   9    -0.177333791342E+03   -0.23210E-05   -0.19107E-07  2020   0.229E-03    0.470E-04
DAV:  10    -0.177333794904E+03   -0.35621E-05   -0.38438E-07  2246   0.281E-03    0.653E-04
DAV:  11    -0.177333796045E+03   -0.11412E-05   -0.24233E-07  2088   0.241E-03    0.494E-04
DAV:  12    -0.177333797964E+03   -0.19193E-05   -0.30464E-07  2165   0.265E-03    0.540E-04
DAV:  13    -0.177333798835E+03   -0.87023E-06   -0.89547E-08  2090   0.120E-03
  33 F= -.17794462E+03 E0= -.17794462E+03  d E =-.177783E-02  mag=    -0.0000
       N       E                     dE             d eps       ncg     rms          rms(c)
DAV:   1    -0.177333833123E+03   -0.35159E-04   -0.23139E-02  3342   0.603E-01    0.314E-02
DAV:   2    -0.177333859983E+03   -0.26860E-04   -0.50713E-04  3572   0.852E-02    0.182E-02
DAV:   3    -0.177333857099E+03    0.28839E-05   -0.17430E-05  3974   0.183E-02    0.111E-02
DAV:   4    -0.177333858053E+03   -0.95466E-06   -0.63855E-06  3296   0.124E-02    0.318E-03
DAV:   5    -0.177333858549E+03   -0.49557E-06   -0.12461E-06  2680   0.487E-03    0.153E-03
DAV:   6    -0.177333858744E+03   -0.19555E-06   -0.26046E-07  2072   0.252E-03
  34 F= -.17794468E+03 E0= -.17794468E+03  d E =-.183180E-02  mag=     0.0000
       N       E                     dE             d eps       ncg     rms          rms(c)
DAV:   1    -0.177333957165E+03   -0.98616E-04   -0.18386E-03  3272   0.196E-01    0.121E-02
DAV:   2    -0.177333958279E+03   -0.11138E-05   -0.56530E-05  3808   0.319E-02    0.663E-03
DAV:   3    -0.177333958275E+03    0.35470E-08   -0.23055E-06  2632   0.754E-03    0.390E-03
DAV:   4    -0.177333958912E+03   -0.63722E-06   -0.12868E-06  2064   0.593E-03    0.108E-03
DAV:   5    -0.177333959173E+03   -0.26002E-06   -0.30261E-07  2000   0.272E-03    0.688E-04
DAV:   6    -0.177333959380E+03   -0.20795E-06   -0.80769E-08  1970   0.140E-03
  35 F= -.17794476E+03 E0= -.17794476E+03  d E =-.839745E-04  mag=     0.0000
       N       E                     dE             d eps       ncg     rms          rms(c)
DAV:   1    -0.177334082948E+03   -0.12378E-03   -0.11803E-02  3212   0.496E-01    0.303E-02
DAV:   2    -0.177334091694E+03   -0.87460E-05   -0.36000E-04  3798   0.807E-02    0.168E-02
DAV:   3    -0.177334089456E+03    0.22380E-05   -0.16016E-05  3704   0.190E-02    0.986E-03
DAV:   4    -0.177334090084E+03   -0.62851E-06   -0.64415E-06  3630   0.129E-02    0.310E-03
DAV:   5    -0.177334090408E+03   -0.32332E-06   -0.11610E-06  2038   0.529E-03    0.155E-03
DAV:   6    -0.177334090623E+03   -0.21543E-06   -0.37479E-07  2000   0.292E-03
  36 F= -.17794485E+03 E0= -.17794485E+03  d E =-.173004E-03  mag=     0.0000
       N       E                     dE             d eps       ncg     rms          rms(c)
DAV:   1    -0.177334178600E+03   -0.88192E-04   -0.21266E-03  3282   0.208E-01    0.119E-02
DAV:   2    -0.177334180757E+03   -0.21564E-05   -0.58140E-05  3661   0.315E-02    0.732E-03
DAV:   3    -0.177334180555E+03    0.20171E-06   -0.25560E-06  2696   0.828E-03    0.422E-03
DAV:   4    -0.177334181430E+03   -0.87502E-06   -0.16096E-06  2426   0.653E-03    0.135E-03
DAV:   5    -0.177334181700E+03   -0.26987E-06   -0.41349E-07  2010   0.323E-03    0.746E-04
DAV:   6    -0.177334181888E+03   -0.18855E-06   -0.16235E-07  2010   0.205E-03
  37 F= -.17794492E+03 E0= -.17794492E+03  d E =-.698090E-04  mag=     0.0000
       N       E                     dE             d eps       ncg     rms          rms(c)
DAV:   1    -0.177334309489E+03   -0.12779E-03   -0.18525E-02  3172   0.614E-01    0.352E-02
DAV:   2    -0.177334332709E+03   -0.23220E-04   -0.50786E-04  3606   0.934E-02    0.215E-02
DAV:   3    -0.177334328347E+03    0.43617E-05   -0.25260E-05  4064   0.246E-02    0.124E-02
DAV:   4    -0.177334330179E+03   -0.18312E-05   -0.10350E-05  3514   0.163E-02    0.425E-03
DAV:   5    -0.177334330875E+03   -0.69603E-06   -0.18703E-06  2790   0.683E-03    0.183E-03
DAV:   6    -0.177334331147E+03   -0.27221E-06   -0.59407E-07  2266   0.417E-03
  38 F= -.17794501E+03 E0= -.17794501E+03  d E =-.155777E-03  mag=    -0.0000
       N       E                     dE             d eps       ncg     rms          rms(c)
DAV:   1    -0.177334446090E+03   -0.11521E-03   -0.38779E-03  3232   0.278E-01    0.143E-02
DAV:   2    -0.177334450347E+03   -0.42571E-05   -0.92622E-05  3510   0.387E-02    0.836E-03
DAV:   3    -0.177334450465E+03   -0.11876E-06   -0.25257E-06  3016   0.804E-03    0.502E-03
DAV:   4    -0.177334452290E+03   -0.18242E-05   -0.20235E-06  2716   0.735E-03    0.136E-03
DAV:   5    -0.177334452378E+03   -0.88257E-07   -0.95756E-07  2410   0.510E-03    0.781E-04
DAV:   6    -0.177334452538E+03   -0.15962E-06   -0.60914E-07  2320   0.377E-03
  39 F= -.17794509E+03 E0= -.17794509E+03  d E =-.866150E-04  mag=    -0.0000
       N       E                     dE             d eps       ncg     rms          rms(c)
DAV:   1    -0.177334725492E+03   -0.27311E-03   -0.34883E-02  3172   0.832E-01    0.428E-02
DAV:   2    -0.177334772392E+03   -0.46900E-04   -0.83043E-04  3520   0.115E-01    0.250E-02
DAV:   3    -0.177334769778E+03    0.26143E-05   -0.22817E-05  3956   0.226E-02    0.151E-02
DAV:   4    -0.177334775047E+03   -0.52693E-05   -0.13729E-05  3536   0.177E-02    0.427E-03
DAV:   5    -0.177334775462E+03   -0.41483E-06   -0.30651E-06  3202   0.839E-03    0.210E-03
DAV:   6    -0.177334775598E+03   -0.13654E-06   -0.94365E-07  2498   0.458E-03
  40 F= -.17794531E+03 E0= -.17794531E+03  d E =-.305389E-03  mag=    -0.0000
       N       E                     dE             d eps       ncg     rms          rms(c)
DAV:   1    -0.177335053042E+03   -0.27758E-03   -0.13954E-01  3172   0.166E+00    0.856E-02
DAV:   2    -0.177335253608E+03   -0.20057E-03   -0.33069E-03  3515   0.229E-01    0.500E-02
DAV:   3    -0.177335239508E+03    0.14100E-04   -0.89902E-05  3976   0.446E-02    0.300E-02
DAV:   4    -0.177335249920E+03   -0.10413E-04   -0.52825E-05  3516   0.344E-02    0.841E-03
DAV:   5    -0.177335251057E+03   -0.11368E-05   -0.10743E-05  3274   0.150E-02    0.414E-03
DAV:   6    -0.177335251344E+03   -0.28666E-06   -0.30137E-06  2984   0.756E-03
  41 F= -.17794558E+03 E0= -.17794558E+03  d E =-.572703E-03  mag=     0.0000
       N       E                     dE             d eps       ncg     rms          rms(c)
DAV:   1    -0.177334716036E+03    0.53502E-03   -0.55823E-01  3172   0.332E+00    0.170E-01
DAV:   2    -0.177335546759E+03   -0.83072E-03   -0.13134E-02  3520   0.456E-01    0.996E-02
DAV:   3    -0.177335482806E+03    0.63953E-04   -0.35438E-04  3976   0.886E-02    0.598E-02
DAV:   4    -0.177335501534E+03   -0.18729E-04   -0.20216E-04  3516   0.673E-02    0.164E-02
DAV:   5    -0.177335504452E+03   -0.29181E-05   -0.40310E-05  3676   0.281E-02    0.808E-03
DAV:   6    -0.177335505141E+03   -0.68824E-06   -0.10290E-05  3246   0.132E-02    0.385E-03
DAV:   7    -0.177335506170E+03   -0.10292E-05   -0.14273E-06  2388   0.662E-03    0.212E-03
DAV:   8    -0.177335508522E+03   -0.23521E-05   -0.18115E-06  2310   0.691E-03    0.985E-04
DAV:   9    -0.177335509170E+03   -0.64828E-06   -0.16146E-06  2415   0.615E-03
  42 F= -.17794542E+03 E0= -.17794542E+03  d E =-.414213E-03  mag=    -0.0000
       N       E                     dE             d eps       ncg     rms          rms(c)
DAV:   1    -0.177335091478E+03    0.41704E-03   -0.24482E-01  3172   0.220E+00    0.114E-01
DAV:   2    -0.177335451038E+03   -0.35956E-03   -0.58617E-03  3486   0.305E-01    0.667E-02
DAV:   3    -0.177335423603E+03    0.27435E-04   -0.16021E-04  3936   0.596E-02    0.402E-02
DAV:   4    -0.177335438769E+03   -0.15166E-04   -0.99528E-05  3506   0.469E-02    0.117E-02
DAV:   5    -0.177335440192E+03   -0.14223E-05   -0.20063E-05  3553   0.205E-02    0.574E-03
DAV:   6    -0.177335440187E+03    0.50550E-08   -0.58571E-06  3303   0.105E-02
  43 F= -.17794563E+03 E0= -.17794563E+03  d E =-.620978E-03  mag=     0.0000
       N       E                     dE             d eps       ncg     rms          rms(c)
DAV:   1    -0.177335596850E+03   -0.15666E-03   -0.74889E-03  3337   0.382E-01    0.176E-02
DAV:   2    -0.177335605715E+03   -0.88647E-05   -0.16225E-04  3468   0.516E-02    0.106E-02
DAV:   3    -0.177335605503E+03    0.21175E-06   -0.39031E-06  3386   0.101E-02    0.630E-03
DAV:   4    -0.177335607894E+03   -0.23913E-05   -0.31563E-06  2902   0.946E-03    0.159E-03
DAV:   5    -0.177335607701E+03    0.19328E-06   -0.15461E-06  2350   0.656E-03    0.873E-04
DAV:   6    -0.177335608016E+03   -0.31484E-06   -0.98106E-07  2350   0.485E-03
  44 F= -.17794574E+03 E0= -.17794574E+03  d E =-.114002E-03  mag=    -0.0000
       N       E                     dE             d eps       ncg     rms          rms(c)
DAV:   1    -0.177335971744E+03   -0.36404E-03   -0.67473E-02  3172   0.115E+00    0.532E-02
DAV:   2    -0.177336064753E+03   -0.93008E-04   -0.14592E-03  3418   0.154E-01    0.313E-02
DAV:   3    -0.177336060593E+03    0.41597E-05   -0.32088E-05  3798   0.273E-02    0.185E-02
DAV:   4    -0.177336067850E+03   -0.72571E-05   -0.18711E-05  3520   0.218E-02    0.450E-03
DAV:   5    -0.177336068013E+03   -0.16316E-06   -0.49897E-06  3162   0.112E-02    0.217E-03
DAV:   6    -0.177336068237E+03   -0.22420E-06   -0.14042E-06  2613   0.593E-03
  45 F= -.17794604E+03 E0= -.17794604E+03  d E =-.412804E-03  mag=     0.0000
       N       E                     dE             d eps       ncg     rms          rms(c)
DAV:   1    -0.177336431746E+03   -0.36373E-03   -0.26992E-01  3172   0.230E+00    0.106E-01
DAV:   2    -0.177336824536E+03   -0.39279E-03   -0.58260E-03  3418   0.308E-01    0.626E-02
DAV:   3    -0.177336801578E+03    0.22958E-04   -0.12806E-04  3798   0.546E-02    0.368E-02
DAV:   4    -0.177336816401E+03   -0.14824E-04   -0.72751E-05  3528   0.430E-02    0.887E-03
DAV:   5    -0.177336816673E+03   -0.27160E-06   -0.19172E-05  3322   0.218E-02    0.427E-03
DAV:   6    -0.177336817439E+03   -0.76586E-06   -0.52780E-06  3317   0.114E-02
  46 F= -.17794647E+03 E0= -.17794647E+03  d E =-.839384E-03  mag=     0.0000
       N       E                     dE             d eps       ncg     rms          rms(c)
DAV:   1    -0.177336031733E+03    0.78494E-03   -0.10797E+00  3172   0.459E+00    0.211E-01
DAV:   2    -0.177337639512E+03   -0.16078E-02   -0.23078E-02  3418   0.612E-01    0.125E-01
DAV:   3    -0.177337535577E+03    0.10394E-03   -0.51132E-04  3778   0.109E-01    0.733E-02
DAV:   4    -0.177337561956E+03   -0.26380E-04   -0.27967E-04  3520   0.846E-02    0.173E-02
DAV:   5    -0.177337562307E+03   -0.35114E-06   -0.72137E-05  3322   0.423E-02    0.840E-03
DAV:   6    -0.177337564777E+03   -0.24696E-05   -0.19573E-05  3297   0.220E-02    0.474E-03
DAV:   7    -0.177337572313E+03   -0.75360E-05   -0.19959E-05  3277   0.224E-02    0.202E-03
DAV:   8    -0.177337571053E+03    0.12599E-05   -0.23523E-05  3256   0.232E-02    0.127E-03
DAV:   9    -0.177337567985E+03    0.30684E-05   -0.80312E-06  3105   0.134E-02    0.914E-04
DAV:  10    -0.177337569349E+03   -0.13642E-05   -0.96881E-07  2437   0.490E-03    0.412E-04
DAV:  11    -0.177337570404E+03   -0.10549E-05   -0.12830E-07  2068   0.159E-03    0.463E-04
DAV:  12    -0.177337571760E+03   -0.13558E-05   -0.76119E-08  2276   0.115E-03    0.347E-04
DAV:  13    -0.177337572330E+03   -0.57063E-06   -0.42896E-08  2010   0.894E-04
  47 F= -.17794658E+03 E0= -.17794658E+03  d E =-.949970E-03  mag=    -0.0000
       N       E                     dE             d eps       ncg     rms          rms(c)
DAV:   1    -0.177337204064E+03    0.36770E-03   -0.14324E-01  3172   0.167E+00    0.773E-02
DAV:   2    -0.177337406591E+03   -0.20253E-03   -0.30776E-03  3458   0.223E-01    0.459E-02
DAV:   3    -0.177337396464E+03    0.10127E-04   -0.68183E-05  3848   0.395E-02    0.271E-02
DAV:   4    -0.177337408476E+03   -0.12012E-04   -0.39979E-05  3552   0.309E-02    0.683E-03
DAV:   5    -0.177337409303E+03   -0.82726E-06   -0.86253E-06  3322   0.131E-02    0.319E-03
DAV:   6    -0.177337409634E+03   -0.33097E-06   -0.16069E-06  2732   0.546E-03
  48 F= -.17794665E+03 E0= -.17794665E+03  d E =-.102194E-02  mag=    -0.0000
       N       E                     dE             d eps       ncg     rms          rms(c)
DAV:   1    -0.177337667791E+03   -0.25849E-03   -0.26507E-02  3282   0.721E-01    0.328E-02
DAV:   2    -0.177337700602E+03   -0.32811E-04   -0.55842E-04  3470   0.957E-02    0.193E-02
DAV:   3    -0.177337699328E+03    0.12737E-05   -0.12823E-05  3910   0.173E-02    0.113E-02
DAV:   4    -0.177337703513E+03   -0.41847E-05   -0.74063E-06  3472   0.135E-02    0.276E-03
DAV:   5    -0.177337703864E+03   -0.35165E-06   -0.13861E-06  2066   0.557E-03    0.143E-03
DAV:   6    -0.177337704039E+03   -0.17466E-06   -0.50830E-07  1970   0.332E-03
  49 F= -.17794684E+03 E0= -.17794684E+03  d E =-.194527E-03  mag=    -0.0000
       N       E                     dE             d eps       ncg     rms          rms(c)
DAV:   1    -0.177338054034E+03   -0.35017E-03   -0.23879E-01  3172   0.217E+00    0.986E-02
DAV:   2    -0.177338381684E+03   -0.32765E-03   -0.50220E-03  3496   0.287E-01    0.576E-02
DAV:   3    -0.177338360539E+03    0.21145E-04   -0.11472E-04  3910   0.517E-02    0.335E-02
DAV:   4    -0.177338373205E+03   -0.12666E-04   -0.63329E-05  3532   0.393E-02    0.795E-03
DAV:   5    -0.177338374717E+03   -0.15117E-05   -0.12912E-05  3546   0.161E-02    0.389E-03
DAV:   6    -0.177338375357E+03   -0.63955E-06   -0.21068E-06  2790   0.664E-03
  50 F= -.17794721E+03 E0= -.17794721E+03  d E =-.566360E-03  mag=     0.0000
       N       E                     dE             d eps       ncg     rms          rms(c)
DAV:   1    -0.177337490563E+03    0.88415E-03   -0.95523E-01  3172   0.433E+00    0.197E-01
DAV:   2    -0.177338843247E+03   -0.13527E-02   -0.20019E-02  3450   0.574E-01    0.115E-01
DAV:   3    -0.177338749092E+03    0.94155E-04   -0.45607E-04  3794   0.103E-01    0.666E-02
DAV:   4    -0.177338769652E+03   -0.20560E-04   -0.24458E-04  3552   0.774E-02    0.155E-02
DAV:   5    -0.177338773908E+03   -0.42560E-05   -0.49820E-05  3634   0.315E-02    0.768E-03
DAV:   6    -0.177338776024E+03   -0.21159E-05   -0.83814E-06  3422   0.130E-02    0.396E-03
DAV:   7    -0.177338777644E+03   -0.16209E-05   -0.94637E-07  1926   0.538E-03    0.183E-03
DAV:   8    -0.177338779761E+03   -0.21169E-05   -0.78120E-07  2178   0.412E-03    0.946E-04
DAV:   9    -0.177338780907E+03   -0.11461E-05   -0.37695E-07  2102   0.324E-03    0.637E-04
DAV:  10    -0.177338782685E+03   -0.17778E-05   -0.56628E-07  2364   0.374E-03    0.514E-04
DAV:  11    -0.177338782920E+03   -0.23487E-06   -0.22585E-07  2088   0.222E-03
  51 F= -.17794702E+03 E0= -.17794702E+03  d E =-.375711E-03  mag=     0.0000
       N       E                     dE             d eps       ncg     rms          rms(c)
DAV:   1    -0.177338091800E+03    0.69088E-03   -0.41274E-01  3172   0.285E+00    0.130E-01
DAV:   2    -0.177338671665E+03   -0.57986E-03   -0.87654E-03  3440   0.379E-01    0.764E-02
DAV:   3    -0.177338633486E+03    0.38179E-04   -0.20170E-04  3890   0.685E-02    0.447E-02
DAV:   4    -0.177338651437E+03   -0.17951E-04   -0.11810E-04  3532   0.534E-02    0.111E-02
DAV:   5    -0.177338653349E+03   -0.19115E-05   -0.24147E-05  3748   0.219E-02    0.526E-03
DAV:   6    -0.177338654060E+03   -0.71189E-06   -0.40256E-06  3184   0.894E-03
  52 F= -.17794729E+03 E0= -.17794729E+03  d E =-.640200E-03  mag=     0.0000
       N       E                     dE             d eps       ncg     rms          rms(c)
DAV:   1    -0.177339031817E+03   -0.37847E-03   -0.63826E-02  3272   0.111E+00    0.476E-02
DAV:   2    -0.177339126580E+03   -0.94763E-04   -0.13401E-03  3448   0.146E-01    0.282E-02
DAV:   3    -0.177339122868E+03    0.37127E-05   -0.25672E-05  3840   0.246E-02    0.167E-02
DAV:   4    -0.177339129444E+03   -0.65761E-05   -0.15795E-05  3482   0.211E-02    0.402E-03
DAV:   5    -0.177339130125E+03   -0.68108E-06   -0.36740E-06  3136   0.837E-03    0.220E-03
DAV:   6    -0.177339130316E+03   -0.19098E-06   -0.53892E-07  1944   0.368E-03
  53 F= -.17794759E+03 E0= -.17794759E+03  d E =-.303736E-03  mag=     0.0000
       N       E                     dE             d eps       ncg     rms          rms(c)
DAV:   1    -0.177339433887E+03   -0.30376E-03   -0.57481E-01  3172   0.332E+00    0.144E-01
DAV:   2    -0.177340341396E+03   -0.90751E-03   -0.12068E-02  3448   0.439E-01    0.841E-02
DAV:   3    -0.177340293607E+03    0.47788E-04   -0.23007E-04  3790   0.734E-02    0.497E-02
DAV:   4    -0.177340308341E+03   -0.14734E-04   -0.13224E-04  3512   0.613E-02    0.115E-02
DAV:   5    -0.177340312049E+03   -0.37072E-05   -0.30779E-05  3696   0.240E-02    0.637E-03
DAV:   6    -0.177340313499E+03   -0.14508E-05   -0.47206E-06  3040   0.102E-02    0.278E-03
DAV:   7    -0.177340314923E+03   -0.14239E-05   -0.63164E-07  2096   0.496E-03    0.145E-03
DAV:   8    -0.177340317085E+03   -0.21619E-05   -0.86366E-07  2324   0.473E-03    0.944E-04
DAV:   9    -0.177340318270E+03   -0.11850E-05   -0.47254E-07  2376   0.352E-03    0.695E-04
DAV:  10    -0.177340320645E+03   -0.23754E-05   -0.78129E-07  2462   0.443E-03    0.610E-04
DAV:  11    -0.177340321241E+03   -0.59543E-06   -0.46333E-07  2374   0.317E-03
  54 F= -.17794827E+03 E0= -.17794827E+03  d E =-.977473E-03  mag=    -0.0000
       N       E                     dE             d eps       ncg     rms          rms(c)
DAV:   1    -0.177338136807E+03    0.21838E-02   -0.22988E+00  3172   0.665E+00    0.286E-01
DAV:   2    -0.177341861474E+03   -0.37247E-02   -0.48250E-02  3413   0.878E-01    0.168E-01
DAV:   3    -0.177341656421E+03    0.20505E-03   -0.91145E-04  3754   0.146E-01    0.990E-02
DAV:   4    -0.177341666948E+03   -0.10527E-04   -0.50051E-04  3496   0.119E-01    0.220E-02
DAV:   5    -0.177341678593E+03   -0.11645E-04   -0.11714E-04  3688   0.466E-02    0.122E-02
DAV:   6    -0.177341682803E+03   -0.42099E-05   -0.17618E-05  3580   0.193E-02    0.541E-03
DAV:   7    -0.177341686990E+03   -0.41865E-05   -0.19549E-06  2722   0.800E-03    0.265E-03
DAV:   8    -0.177341693006E+03   -0.60166E-05   -0.12454E-06  2632   0.537E-03    0.149E-03
DAV:   9    -0.177341697672E+03   -0.46655E-05   -0.42082E-07  2198   0.353E-03    0.820E-04
DAV:  10    -0.177341703730E+03   -0.60581E-05   -0.87370E-07  2536   0.430E-03    0.878E-04
DAV:  11    -0.177341707490E+03   -0.37597E-05   -0.11420E-06  2532   0.523E-03    0.663E-04
DAV:  12    -0.177341711010E+03   -0.35205E-05   -0.89063E-07  2540   0.444E-03    0.522E-04
DAV:  13    -0.177341711707E+03   -0.69647E-06   -0.14536E-07  2136   0.168E-03
  55 F= -.17794862E+03 E0= -.17794862E+03  d E =-.133515E-02  mag=    -0.0000
       N       E                     dE             d eps       ncg     rms          rms(c)
DAV:   1    -0.177341283669E+03    0.42734E-03   -0.13747E-01  3262   0.163E+00    0.705E-02
DAV:   2    -0.177341494593E+03   -0.21092E-03   -0.29118E-03  3418   0.216E-01    0.415E-02
DAV:   3    -0.177341486715E+03    0.78772E-05   -0.56357E-05  3856   0.363E-02    0.246E-02
DAV:   4    -0.177341498169E+03   -0.11453E-04   -0.34255E-05  3598   0.308E-02    0.602E-03
DAV:   5    -0.177341499351E+03   -0.11817E-05   -0.77063E-06  3374   0.121E-02    0.318E-03
DAV:   6    -0.177341499651E+03   -0.30049E-06   -0.11242E-06  2262   0.503E-03
  56 F= -.17794866E+03 E0= -.17794866E+03  d E =-.137556E-02  mag=    -0.0000
       N       E                     dE             d eps       ncg     rms          rms(c)
DAV:   1    -0.177341918933E+03   -0.41958E-03   -0.32552E-01  3212   0.247E+00    0.105E-01
DAV:   2    -0.177342459941E+03   -0.54101E-03   -0.69594E-03  3488   0.330E-01    0.606E-02
DAV:   3    -0.177342441169E+03    0.18772E-04   -0.11449E-04  3814   0.510E-02    0.370E-02
DAV:   4    -0.177342461901E+03   -0.20732E-04   -0.87173E-05  3438   0.472E-02    0.966E-03
DAV:   5    -0.177342463450E+03   -0.15484E-05   -0.19374E-05  3656   0.183E-02    0.545E-03
DAV:   6    -0.177342463871E+03   -0.42181E-06   -0.41268E-06  3010   0.804E-03
  57 F= -.17794925E+03 E0= -.17794925E+03  d E =-.582691E-03  mag=     0.0000
       N       E                     dE             d eps       ncg     rms          rms(c)
DAV:   1    -0.177339857899E+03    0.26056E-02   -0.29315E+00  3172   0.742E+00    0.312E-01
DAV:   2    -0.177344892324E+03   -0.50344E-02   -0.62119E-02  3418   0.984E-01    0.180E-01
DAV:   3    -0.177344690317E+03    0.20201E-03   -0.99980E-04  3742   0.150E-01    0.109E-01
DAV:   4    -0.177344740291E+03   -0.49974E-04   -0.69838E-04  3448   0.136E-01    0.263E-02
DAV:   5    -0.177344749393E+03   -0.91019E-05   -0.16236E-04  3722   0.529E-02    0.154E-02
DAV:   6    -0.177344751030E+03   -0.16370E-05   -0.33541E-05  3650   0.234E-02    0.605E-03
DAV:   7    -0.177344752694E+03   -0.16646E-05   -0.29314E-06  3100   0.851E-03    0.309E-03
DAV:   8    -0.177344755881E+03   -0.31867E-05   -0.13629E-06  2682   0.560E-03    0.160E-03
DAV:   9    -0.177344758058E+03   -0.21770E-05   -0.38200E-07  2084   0.345E-03    0.106E-03
DAV:  10    -0.177344761060E+03   -0.30017E-05   -0.56588E-07  2316   0.387E-03    0.724E-04
DAV:  11    -0.177344763637E+03   -0.25772E-05   -0.81586E-07  2506   0.440E-03    0.783E-04
DAV:  12    -0.177344766645E+03   -0.30082E-05   -0.97577E-07  2512   0.484E-03    0.684E-04
DAV:  13    -0.177344767081E+03   -0.43635E-06   -0.22521E-07  2174   0.211E-03
  58 F= -.17795041E+03 E0= -.17795041E+03  d E =-.174226E-02  mag=    -0.0000
       N       E                     dE             d eps       ncg     rms          rms(c)
DAV:   1    -0.177327281444E+03    0.17485E-01   -0.11730E+01  3172   0.148E+01    0.618E-01
DAV:   2    -0.177347699707E+03   -0.20418E-01   -0.24694E-01  3418   0.196E+00    0.355E-01
DAV:   3    -0.177346927737E+03    0.77197E-03   -0.38891E-03  3712   0.296E-01    0.217E-01
DAV:   4    -0.177346931470E+03   -0.37332E-05   -0.24037E-03  3448   0.260E-01    0.464E-02
DAV:   5    -0.177346970810E+03   -0.39340E-04   -0.59487E-04  3728   0.101E-01    0.289E-02
DAV:   6    -0.177346972708E+03   -0.18974E-05   -0.12026E-04  3662   0.460E-02    0.120E-02
DAV:   7    -0.177346976219E+03   -0.35116E-05   -0.12386E-05  3578   0.172E-02    0.610E-03
DAV:   8    -0.177346984495E+03   -0.82753E-05   -0.51190E-06  3514   0.104E-02    0.305E-03
DAV:   9    -0.177346989652E+03   -0.51570E-05   -0.78995E-07  2196   0.509E-03    0.185E-03
DAV:  10    -0.177346997910E+03   -0.82581E-05   -0.19197E-06  2930   0.611E-03    0.177E-03
DAV:  11    -0.177347002784E+03   -0.48739E-05   -0.95626E-07  2566   0.492E-03    0.117E-03
DAV:  12    -0.177347010969E+03   -0.81852E-05   -0.14881E-06  2680   0.528E-03    0.985E-04
DAV:  13    -0.177347012131E+03   -0.11624E-05   -0.58755E-07  2584   0.312E-03    0.803E-04
DAV:  14    -0.177347015736E+03   -0.36047E-05   -0.67230E-07  2418   0.352E-03    0.738E-04
DAV:  15    -0.177347017552E+03   -0.18162E-05   -0.17675E-07  2308   0.173E-03    0.626E-04
DAV:  16    -0.177347018414E+03   -0.86174E-06   -0.82447E-08  2122   0.122E-03
  59 F= -.17795037E+03 E0= -.17795037E+03  d E =-.171045E-02  mag=    -0.0000
       N       E                     dE             d eps       ncg     rms          rms(c)
DAV:   1    -0.177340948119E+03    0.60694E-02   -0.31132E+00  3172   0.764E+00    0.330E-01
DAV:   2    -0.177346414579E+03   -0.54665E-02   -0.68535E-02  3453   0.103E+00    0.192E-01
DAV:   3    -0.177346173450E+03    0.24113E-03   -0.11796E-03  3743   0.163E-01    0.118E-01
DAV:   4    -0.177346233023E+03   -0.59573E-04   -0.10323E-03  3518   0.155E-01    0.353E-02
DAV:   5    -0.177346233271E+03   -0.24798E-06   -0.21076E-04  3732   0.608E-02    0.181E-02
DAV:   6    -0.177346233185E+03    0.86146E-07   -0.44097E-05  3640   0.251E-02    0.620E-03
DAV:   7    -0.177346233977E+03   -0.79229E-06   -0.27336E-06  3134   0.835E-03
  60 F= -.17795077E+03 E0= -.17795077E+03  d E =-.210249E-02  mag=     0.0000
       N       E                     dE             d eps       ncg     rms          rms(c)
DAV:   1    -0.177346639350E+03   -0.40617E-03   -0.19349E-01  3212   0.190E+00    0.815E-02
DAV:   2    -0.177346955985E+03   -0.31664E-03   -0.41561E-03  3500   0.254E-01    0.474E-02
DAV:   3    -0.177346945996E+03    0.99894E-05   -0.70829E-05  3912   0.408E-02    0.290E-02
DAV:   4    -0.177346963793E+03   -0.17797E-04   -0.56339E-05  3480   0.376E-02    0.792E-03
DAV:   5    -0.177346965215E+03   -0.14218E-05   -0.12451E-05  3286   0.149E-02    0.434E-03
DAV:   6    -0.177346966270E+03   -0.10552E-05   -0.29169E-06  3032   0.677E-03    0.174E-03
DAV:   7    -0.177346966958E+03   -0.68796E-06   -0.29838E-07  2007   0.271E-03
  61 F= -.17795122E+03 E0= -.17795122E+03  d E =-.453779E-03  mag=    -0.0000
       N       E                     dE             d eps       ncg     rms          rms(c)
DAV:   1    -0.177345753833E+03    0.12124E-02   -0.17427E+00  3172   0.571E+00    0.244E-01
DAV:   2    -0.177348695430E+03   -0.29416E-02   -0.37227E-02  3500   0.760E-01    0.141E-01
DAV:   3    -0.177348580427E+03    0.11500E-03   -0.63163E-04  3918   0.121E-01    0.856E-02
DAV:   4    -0.177348639151E+03   -0.58724E-04   -0.45941E-04  3470   0.109E-01    0.219E-02
DAV:   5    -0.177348644435E+03   -0.52843E-05   -0.10368E-04  3664   0.430E-02    0.125E-02
DAV:   6    -0.177348645725E+03   -0.12902E-05   -0.23379E-05  3572   0.197E-02    0.503E-03
DAV:   7    -0.177348646598E+03   -0.87277E-06   -0.24420E-06  3074   0.750E-03
  62 F= -.17795206E+03 E0= -.17795206E+03  d E =-.129616E-02  mag=     0.0000
       N       E                     dE             d eps       ncg     rms          rms(c)
DAV:   1    -0.177338201928E+03    0.10444E-01   -0.69742E+00  3172   0.114E+01    0.484E-01
DAV:   2    -0.177350180174E+03   -0.11978E-01   -0.14801E-01  3450   0.151E+00    0.278E-01
DAV:   3    -0.177349702296E+03    0.47788E-03   -0.24714E-03  3864   0.240E-01    0.169E-01
DAV:   4    -0.177349781480E+03   -0.79184E-04   -0.16570E-03  3540   0.210E-01    0.402E-02
DAV:   5    -0.177349800986E+03   -0.19505E-04   -0.38567E-04  3664   0.832E-02    0.241E-02
DAV:   6    -0.177349802112E+03   -0.11259E-05   -0.86733E-05  3674   0.394E-02    0.992E-03
DAV:   7    -0.177349804153E+03   -0.20418E-05   -0.97833E-06  3394   0.153E-02    0.471E-03
DAV:   8    -0.177349807539E+03   -0.33858E-05   -0.27155E-06  3322   0.803E-03    0.219E-03
DAV:   9    -0.177349809395E+03   -0.18554E-05   -0.11937E-06  2516   0.589E-03    0.133E-03
DAV:  10    -0.177349811420E+03   -0.20250E-05   -0.12396E-06  2433   0.572E-03    0.677E-04
DAV:  11    -0.177349813916E+03   -0.24968E-05   -0.21764E-06  2491   0.683E-03    0.672E-04
DAV:  12    -0.177349815823E+03   -0.19070E-05   -0.18479E-06  2478   0.616E-03    0.710E-04
DAV:  13    -0.177349816388E+03   -0.56453E-06   -0.24489E-07  2240   0.206E-03
  63 F= -.17795156E+03 E0= -.17795156E+03  d E =-.793001E-03  mag=    -0.0000
       N       E                     dE             d eps       ncg     rms          rms(c)
DAV:   1    -0.177343651742E+03    0.61641E-02   -0.33396E+00  3172   0.788E+00    0.347E-01
DAV:   2    -0.177349506559E+03   -0.58548E-02   -0.74560E-02  3440   0.107E+00    0.202E-01
DAV:   3    -0.177349238066E+03    0.26849E-03   -0.13393E-03  3834   0.176E-01    0.124E-01
DAV:   4    -0.177349320655E+03   -0.82589E-04   -0.11566E-03  3576   0.164E-01    0.377E-02
DAV:   5    -0.177349321120E+03   -0.46481E-06   -0.24395E-04  3704   0.657E-02    0.183E-02
DAV:   6    -0.177349322159E+03   -0.10394E-05   -0.52011E-05  3644   0.275E-02    0.729E-03
DAV:   7    -0.177349322997E+03   -0.83749E-06   -0.50087E-06  3152   0.989E-03
  64 F= -.17795222E+03 E0= -.17795222E+03  d E =-.145776E-02  mag=    -0.0000
       N       E                     dE             d eps       ncg     rms          rms(c)
DAV:   1    -0.177349715217E+03   -0.39306E-03   -0.26164E-01  3272   0.221E+00    0.969E-02
DAV:   2    -0.177350139911E+03   -0.42469E-03   -0.56497E-03  3504   0.295E-01    0.562E-02
DAV:   3    -0.177350125704E+03    0.14207E-04   -0.99212E-05  3894   0.474E-02    0.342E-02
DAV:   4    -0.177350146047E+03   -0.20344E-04   -0.73686E-05  3510   0.422E-02    0.919E-03
DAV:   5    -0.177350146948E+03   -0.90055E-06   -0.15847E-05  3422   0.168E-02    0.476E-03
DAV:   6    -0.177350147481E+03   -0.53388E-06   -0.37101E-06  3100   0.732E-03
  65 F= -.17795275E+03 E0= -.17795275E+03  d E =-.526074E-03  mag=     0.0000
       N       E                     dE             d eps       ncg     rms          rms(c)
DAV:   1    -0.177347953181E+03    0.21938E-02   -0.23567E+00  3172   0.663E+00    0.291E-01
DAV:   2    -0.177351908906E+03   -0.39557E-02   -0.50705E-02  3484   0.885E-01    0.166E-01
DAV:   3    -0.177351759428E+03    0.14948E-03   -0.88384E-04  3880   0.141E-01    0.101E-01
DAV:   4    -0.177351833504E+03   -0.74077E-04   -0.60394E-04  3490   0.122E-01    0.258E-02
DAV:   5    -0.177351837885E+03   -0.43809E-05   -0.13048E-04  3592   0.484E-02    0.140E-02
DAV:   6    -0.177351839426E+03   -0.15412E-05   -0.31993E-05  3614   0.223E-02    0.610E-03
DAV:   7    -0.177351840999E+03   -0.15728E-05   -0.31661E-06  3122   0.818E-03    0.292E-03
DAV:   8    -0.177351843502E+03   -0.25027E-05   -0.99155E-07  2114   0.469E-03    0.121E-03
DAV:   9    -0.177351844804E+03   -0.13020E-05   -0.36066E-07  2098   0.292E-03    0.916E-04
DAV:  10    -0.177351846933E+03   -0.21293E-05   -0.50705E-07  2256   0.359E-03    0.557E-04
DAV:  11    -0.177351847511E+03   -0.57766E-06   -0.42194E-07  2424   0.270E-03
  66 F= -.17795356E+03 E0= -.17795356E+03  d E =-.133101E-02  mag=     0.0000
       N       E                     dE             d eps       ncg     rms          rms(c)
DAV:   1    -0.177351894103E+03   -0.47170E-04   -0.10092E-01  3172   0.137E+00    0.605E-02
DAV:   2    -0.177352052717E+03   -0.15861E-03   -0.21951E-03  3514   0.184E-01    0.349E-02
DAV:   3    -0.177352048574E+03    0.41433E-05   -0.39449E-05  3902   0.298E-02    0.213E-02
DAV:   4    -0.177352061087E+03   -0.12513E-04   -0.28599E-05  3418   0.263E-02    0.574E-03
DAV:   5    -0.177352061848E+03   -0.76168E-06   -0.61395E-06  3109   0.106E-02    0.294E-03
DAV:   6    -0.177352062342E+03   -0.49366E-06   -0.13763E-06  2507   0.479E-03
  67 F= -.17795358E+03 E0= -.17795358E+03  d E =-.136065E-02  mag=     0.0000
       N       E                     dE             d eps       ncg     rms          rms(c)
DAV:   1    -0.177352301805E+03   -0.23996E-03   -0.46276E-02  3172   0.942E-01    0.473E-02
DAV:   2    -0.177352358896E+03   -0.57092E-04   -0.10301E-03  3568   0.128E-01    0.278E-02
DAV:   3    -0.177352355105E+03    0.37917E-05   -0.25230E-05  3952   0.246E-02    0.159E-02
DAV:   4    -0.177352360763E+03   -0.56588E-05   -0.15414E-05  3486   0.199E-02    0.414E-03
DAV:   5    -0.177352361153E+03   -0.38934E-06   -0.30117E-06  3224   0.814E-03    0.207E-03
DAV:   6    -0.177352361479E+03   -0.32603E-06   -0.66851E-07  2122   0.411E-03
  68 F= -.17795380E+03 E0= -.17795380E+03  d E =-.215396E-03  mag=     0.0000
       N       E                     dE             d eps       ncg     rms          rms(c)
DAV:   1    -0.177352448742E+03   -0.87589E-04   -0.24200E-01  3172   0.215E+00    0.108E-01
DAV:   2    -0.177352773521E+03   -0.32478E-03   -0.53601E-03  3548   0.292E-01    0.635E-02
DAV:   3    -0.177352742781E+03    0.30740E-04   -0.13147E-04  3830   0.562E-02    0.363E-02
DAV:   4    -0.177352753393E+03   -0.10612E-04   -0.80285E-05  3486   0.454E-02    0.944E-03
DAV:   5    -0.177352754391E+03   -0.99777E-06   -0.15336E-05  3616   0.181E-02    0.473E-03
DAV:   6    -0.177352755420E+03   -0.10297E-05   -0.34442E-06  3056   0.877E-03    0.237E-03
DAV:   7    -0.177352756522E+03   -0.11014E-05   -0.89748E-07  2456   0.530E-03    0.123E-03
DAV:   8    -0.177352758638E+03   -0.21160E-05   -0.14343E-06  2381   0.552E-03    0.835E-04
DAV:   9    -0.177352759947E+03   -0.13095E-05   -0.17637E-06  2390   0.560E-03    0.626E-04
DAV:  10    -0.177352761895E+03   -0.19478E-05   -0.18223E-06  2311   0.569E-03    0.456E-04
DAV:  11    -0.177352762881E+03   -0.98540E-06   -0.74636E-07  2451   0.337E-03
  69 F= -.17795401E+03 E0= -.17795401E+03  d E =-.425285E-03  mag=     0.0000
       N       E                     dE             d eps       ncg     rms          rms(c)
DAV:   1    -0.177352967019E+03   -0.20512E-03   -0.30200E-02  3172   0.760E-01    0.400E-02
DAV:   2    -0.177353000091E+03   -0.33072E-04   -0.67758E-04  3590   0.103E-01    0.237E-02
DAV:   3    -0.177352997057E+03    0.30341E-05   -0.18518E-05  3952   0.215E-02    0.133E-02
DAV:   4    -0.177353001128E+03   -0.40716E-05   -0.10931E-05  3502   0.166E-02    0.361E-03
DAV:   5    -0.177353001444E+03   -0.31598E-06   -0.17503E-06  2446   0.639E-03    0.188E-03
DAV:   6    -0.177353001764E+03   -0.31922E-06   -0.64910E-07  1990   0.399E-03
  70 F= -.17795419E+03 E0= -.17795419E+03  d E =-.177246E-03  mag=    -0.0000
       N       E                     dE             d eps       ncg     rms          rms(c)
DAV:   1    -0.177353132682E+03   -0.13124E-03   -0.18940E-01  3172   0.190E+00    0.100E-01
DAV:   2    -0.177353363559E+03   -0.23088E-03   -0.42428E-03  3580   0.259E-01    0.593E-02
DAV:   3    -0.177353334722E+03    0.28837E-04   -0.11553E-04  3862   0.538E-02    0.332E-02
DAV:   4    -0.177353342334E+03   -0.76123E-05   -0.68848E-05  3528   0.416E-02    0.910E-03
DAV:   5    -0.177353342949E+03   -0.61460E-06   -0.11554E-05  3504   0.158E-02    0.463E-03
DAV:   6    -0.177353343983E+03   -0.10339E-05   -0.32833E-06  3152   0.839E-03    0.236E-03
DAV:   7    -0.177353344962E+03   -0.97942E-06   -0.44549E-07  2072   0.405E-03
  71 F= -.17795438E+03 E0= -.17795438E+03  d E =-.366067E-03  mag=    -0.0000
       N       E                     dE             d eps       ncg     rms          rms(c)
DAV:   1    -0.177353427657E+03   -0.83674E-04   -0.28327E-03  3322   0.237E-01    0.129E-02
DAV:   2    -0.177353430346E+03   -0.26884E-05   -0.68480E-05  3666   0.343E-02    0.727E-03
DAV:   3    -0.177353431296E+03   -0.95048E-06   -0.23962E-06  3024   0.773E-03    0.418E-03
DAV:   4    -0.177353433701E+03   -0.24045E-05   -0.10004E-06  2062   0.558E-03    0.120E-03
DAV:   5    -0.177353434875E+03   -0.11742E-05   -0.41097E-07  2166   0.336E-03    0.664E-04
DAV:   6    -0.177353435858E+03   -0.98290E-06   -0.30160E-07  2188   0.279E-03
  72 F= -.17795444E+03 E0= -.17795444E+03  d E =-.607944E-04  mag=    -0.0000
       N       E                     dE             d eps       ncg     rms          rms(c)
DAV:   1    -0.177353594676E+03   -0.15980E-03   -0.25453E-02  3172   0.711E-01    0.381E-02
DAV:   2    -0.177353620823E+03   -0.26148E-04   -0.61097E-04  3590   0.102E-01    0.219E-02
DAV:   3    -0.177353619556E+03    0.12679E-05   -0.22431E-05  4069   0.228E-02    0.128E-02
DAV:   4    -0.177353623791E+03   -0.42359E-05   -0.90526E-06  3480   0.148E-02    0.432E-03
DAV:   5    -0.177353624831E+03   -0.10393E-05   -0.16915E-06  2366   0.695E-03    0.185E-03
DAV:   6    -0.177353625305E+03   -0.47458E-06   -0.10831E-06  2478   0.534E-03
  73 F= -.17795454E+03 E0= -.17795454E+03  d E =-.159940E-03  mag=    -0.0000
       N       E                     dE             d eps       ncg     rms          rms(c)
DAV:   1    -0.177353593681E+03    0.31150E-04   -0.10177E-01  3172   0.142E+00    0.763E-02
DAV:   2    -0.177353709501E+03   -0.11582E-03   -0.24346E-03  3580   0.204E-01    0.437E-02
DAV:   3    -0.177353700736E+03    0.87651E-05   -0.88561E-05  4084   0.453E-02    0.256E-02
DAV:   4    -0.177353709042E+03   -0.83060E-05   -0.35290E-05  3759   0.288E-02    0.863E-03
DAV:   5    -0.177353711138E+03   -0.20964E-05   -0.63931E-06  3478   0.118E-02    0.360E-03
DAV:   6    -0.177353711714E+03   -0.57547E-06   -0.19886E-06  2696   0.700E-03
  74 F= -.17795444E+03 E0= -.17795444E+03  d E =-.658108E-04  mag=    -0.0000
       N       E                     dE             d eps       ncg     rms          rms(c)
DAV:   1    -0.177353618057E+03    0.93081E-04   -0.55947E-02  3172   0.105E+00    0.567E-02
DAV:   2    -0.177353680927E+03   -0.62870E-04   -0.13499E-03  3598   0.151E-01    0.326E-02
DAV:   3    -0.177353677505E+03    0.34211E-05   -0.49425E-05  4078   0.337E-02    0.191E-02
DAV:   4    -0.177353685789E+03   -0.82831E-05   -0.20229E-05  3730   0.219E-02    0.646E-03
DAV:   5    -0.177353687969E+03   -0.21802E-05   -0.35718E-06  3388   0.886E-03    0.271E-03
DAV:   6    -0.177353688298E+03   -0.32935E-06   -0.10907E-06  2412   0.525E-03
  75 F= -.17795455E+03 E0= -.17795455E+03  d E =-.176266E-03  mag=     0.0000
       N       E                     dE             d eps       ncg     rms          rms(c)
DAV:   1    -0.177353803437E+03   -0.11547E-03   -0.80226E-03  3312   0.396E-01    0.198E-02
DAV:   2    -0.177353813177E+03   -0.97401E-05   -0.19418E-04  3752   0.556E-02    0.115E-02
DAV:   3    -0.177353812955E+03    0.22230E-06   -0.49877E-06  3362   0.110E-02    0.693E-03
DAV:   4    -0.177353815362E+03   -0.24067E-05   -0.37799E-06  2842   0.973E-03    0.211E-03
DAV:   5    -0.177353815522E+03   -0.15971E-06   -0.68767E-07  2018   0.413E-03    0.122E-03
DAV:   6    -0.177353815588E+03   -0.66062E-07   -0.38044E-07  1970   0.279E-03
  76 F= -.17795462E+03 E0= -.17795462E+03  d E =-.702133E-04  mag=     0.0000
       N       E                     dE             d eps       ncg     rms          rms(c)
DAV:   1    -0.177353973063E+03   -0.15754E-03   -0.71487E-02  3172   0.118E+00    0.592E-02
DAV:   2    -0.177354075401E+03   -0.10234E-03   -0.17166E-03  3660   0.165E-01    0.341E-02
DAV:   3    -0.177354069317E+03    0.60843E-05   -0.44004E-05  3804   0.324E-02    0.205E-02
DAV:   4    -0.177354078131E+03   -0.88135E-05   -0.31376E-05  3594   0.276E-02    0.627E-03
DAV:   5    -0.177354078781E+03   -0.64991E-06   -0.61192E-06  3028   0.113E-02    0.315E-03
DAV:   6    -0.177354078977E+03   -0.19633E-06   -0.15526E-06  2584   0.555E-03
  77 F= -.17795472E+03 E0= -.17795472E+03  d E =-.163315E-03  mag=    -0.0000
       N       E                     dE             d eps       ncg     rms          rms(c)
DAV:   1    -0.177354168721E+03   -0.89941E-04   -0.43172E-03  3302   0.288E-01    0.139E-02
DAV:   2    -0.177354173651E+03   -0.49294E-05   -0.10085E-04  3570   0.399E-02    0.790E-03
DAV:   3    -0.177354173937E+03   -0.28608E-06   -0.23506E-06  2918   0.767E-03    0.479E-03
DAV:   4    -0.177354175631E+03   -0.16946E-05   -0.17079E-06  2640   0.652E-03    0.145E-03
DAV:   5    -0.177354175754E+03   -0.12259E-06   -0.34110E-07  2000   0.294E-03    0.831E-04
DAV:   6    -0.177354175833E+03   -0.79121E-07   -0.19282E-07  1920   0.206E-03
  78 F= -.17795477E+03 E0= -.17795477E+03  d E =-.527174E-04  mag=     0.0000
       N       E                     dE             d eps       ncg     rms          rms(c)
DAV:   1    -0.177354366762E+03   -0.19101E-03   -0.38848E-02  3172   0.863E-01    0.412E-02
DAV:   2    -0.177354423242E+03   -0.56480E-04   -0.90789E-04  3600   0.120E-01    0.237E-02
DAV:   3    -0.177354421208E+03    0.20339E-05   -0.22346E-05  3900   0.231E-02    0.144E-02
DAV:   4    -0.177354427041E+03   -0.58331E-05   -0.14368E-05  3578   0.186E-02    0.453E-03
DAV:   5    -0.177354427721E+03   -0.67989E-06   -0.26890E-06  3052   0.772E-03    0.232E-03
DAV:   6    -0.177354427838E+03   -0.11650E-06   -0.83305E-07  2210   0.430E-03
  79 F= -.17795489E+03 E0= -.17795489E+03  d E =-.172335E-03  mag=     0.0000
       N       E                     dE             d eps       ncg     rms          rms(c)
DAV:   1    -0.177354524757E+03   -0.97036E-04   -0.15540E-01  3172   0.173E+00    0.823E-02
DAV:   2    -0.177354766084E+03   -0.24133E-03   -0.36247E-03  3570   0.239E-01    0.472E-02
DAV:   3    -0.177354755007E+03    0.11077E-04   -0.88875E-05  3900   0.461E-02    0.288E-02
DAV:   4    -0.177354767782E+03   -0.12775E-04   -0.56697E-05  3648   0.369E-02    0.899E-03
DAV:   5    -0.177354769400E+03   -0.16180E-05   -0.10654E-05  3426   0.152E-02    0.459E-03
DAV:   6    -0.177354769696E+03   -0.29658E-06   -0.34915E-06  3042   0.834E-03
  80 F= -.17795497E+03 E0= -.17795497E+03  d E =-.249555E-03  mag=    -0.0000
       N       E                     dE             d eps       ncg     rms          rms(c)
DAV:   1    -0.177354907843E+03   -0.13844E-03   -0.23327E-02  3262   0.657E-01    0.298E-02
DAV:   2    -0.177354942738E+03   -0.34894E-04   -0.52256E-04  3500   0.885E-02    0.169E-02
DAV:   3    -0.177354942363E+03    0.37514E-06   -0.92601E-06  3832   0.144E-02    0.103E-02
DAV:   4    -0.177354947084E+03   -0.47215E-05   -0.74048E-06  3212   0.133E-02    0.309E-03
DAV:   5    -0.177354947369E+03   -0.28437E-06   -0.14045E-06  2504   0.541E-03    0.179E-03
DAV:   6    -0.177354947615E+03   -0.24659E-06   -0.57225E-07  2018   0.336E-03
  81 F= -.17795505E+03 E0= -.17795505E+03  d E =-.814202E-04  mag=     0.0000
       N       E                     dE             d eps       ncg     rms          rms(c)
DAV:   1    -0.177355074845E+03   -0.12748E-03   -0.20997E-01  3172   0.197E+00    0.885E-02
DAV:   2    -0.177355422120E+03   -0.34728E-03   -0.46920E-03  3450   0.265E-01    0.506E-02
DAV:   3    -0.177355409930E+03    0.12190E-04   -0.83816E-05  3784   0.434E-02    0.311E-02
DAV:   4    -0.177355426556E+03   -0.16626E-04   -0.68074E-05  3484   0.405E-02    0.935E-03
DAV:   5    -0.177355427538E+03   -0.98155E-06   -0.13137E-05  3340   0.159E-02    0.540E-03
DAV:   6    -0.177355427976E+03   -0.43817E-06   -0.43789E-06  3048   0.864E-03
  82 F= -.17795524E+03 E0= -.17795524E+03  d E =-.272414E-03  mag=     0.0000
       N       E                     dE             d eps       ncg     rms          rms(c)
DAV:   1    -0.177354750485E+03    0.67705E-03   -0.84003E-01  3172   0.395E+00    0.176E-01
DAV:   2    -0.177356181577E+03   -0.14311E-02   -0.18677E-02  3440   0.529E-01    0.101E-01
DAV:   3    -0.177356125234E+03    0.56343E-04   -0.33103E-04  3774   0.862E-02    0.617E-02
DAV:   4    -0.177356162243E+03   -0.37009E-04   -0.25653E-04  3484   0.797E-02    0.178E-02
DAV:   5    -0.177356164914E+03   -0.26718E-05   -0.51167E-05  3724   0.314E-02    0.105E-02
DAV:   6    -0.177356165838E+03   -0.92379E-06   -0.15767E-05  3144   0.166E-02    0.362E-03
DAV:   7    -0.177356166854E+03   -0.10155E-05   -0.11252E-06  2240   0.591E-03    0.220E-03
DAV:   8    -0.177356168649E+03   -0.17953E-05   -0.13634E-06  2908   0.574E-03    0.143E-03
DAV:   9    -0.177356169282E+03   -0.63358E-06   -0.29708E-07  2040   0.282E-03
  83 F= -.17795540E+03 E0= -.17795540E+03  d E =-.435613E-03  mag=    -0.0000
       N       E                     dE             d eps       ncg     rms          rms(c)
DAV:   1    -0.177356397318E+03   -0.22867E-03   -0.66669E-02  3262   0.111E+00    0.494E-02
DAV:   2    -0.177356502529E+03   -0.10521E-03   -0.14802E-03  3476   0.150E-01    0.285E-02
DAV:   3    -0.177356498928E+03    0.36010E-05   -0.29292E-05  3974   0.265E-02    0.173E-02
DAV:   4    -0.177356507118E+03   -0.81894E-05   -0.20607E-05  3472   0.234E-02    0.507E-03
DAV:   5    -0.177356508212E+03   -0.10946E-05   -0.44365E-06  3176   0.101E-02    0.278E-03
DAV:   6    -0.177356509030E+03   -0.81816E-06   -0.14612E-06  2763   0.593E-03
  84 F= -.17795559E+03 E0= -.17795559E+03  d E =-.188544E-03  mag=    -0.0000
       N       E                     dE             d eps       ncg     rms          rms(c)
DAV:   1    -0.177356677067E+03   -0.16886E-03   -0.12083E-01  3172   0.150E+00    0.664E-02
DAV:   2    -0.177356870814E+03   -0.19375E-03   -0.26714E-03  3466   0.202E-01    0.382E-02
DAV:   3    -0.177356863899E+03    0.69157E-05   -0.52483E-05  3859   0.354E-02    0.232E-02
DAV:   4    -0.177356875326E+03   -0.11428E-04   -0.35365E-05  3492   0.305E-02    0.664E-03
DAV:   5    -0.177356876706E+03   -0.13797E-05   -0.75925E-06  3218   0.129E-02    0.354E-03
DAV:   6    -0.177356877469E+03   -0.76280E-06   -0.22461E-06  2906   0.725E-03
  85 F= -.17795575E+03 E0= -.17795575E+03  d E =-.353525E-03  mag=     0.0000
       N       E                     dE             d eps       ncg     rms          rms(c)
DAV:   1    -0.177356545015E+03    0.33169E-03   -0.48334E-01  3172   0.300E+00    0.132E-01
DAV:   2    -0.177357345835E+03   -0.80082E-03   -0.10647E-02  3456   0.403E-01    0.762E-02
DAV:   3    -0.177357312073E+03    0.33762E-04   -0.20783E-04  3834   0.703E-02    0.462E-02
DAV:   4    -0.177357337859E+03   -0.25786E-04   -0.13641E-04  3532   0.599E-02    0.130E-02
DAV:   5    -0.177357341168E+03   -0.33087E-05   -0.28712E-05  3610   0.245E-02    0.697E-03
DAV:   6    -0.177357342628E+03   -0.14601E-05   -0.80084E-06  3164   0.131E-02    0.300E-03
DAV:   7    -0.177357343363E+03   -0.73557E-06   -0.13819E-06  2340   0.691E-03
  86 F= -.17795581E+03 E0= -.17795581E+03  d E =-.412788E-03  mag=     0.0000
       N       E                     dE             d eps       ncg     rms          rms(c)
DAV:   1    -0.177357113058E+03    0.22957E-03   -0.63003E-02  3172   0.108E+00    0.479E-02
DAV:   2    -0.177357212391E+03   -0.99333E-04   -0.14028E-03  3466   0.146E-01    0.280E-02
DAV:   3    -0.177357210270E+03    0.21212E-05   -0.28142E-05  4014   0.265E-02    0.171E-02
DAV:   4    -0.177357221787E+03   -0.11517E-04   -0.21809E-05  3444   0.244E-02    0.514E-03
DAV:   5    -0.177357222310E+03   -0.52299E-06   -0.60668E-06  3388   0.125E-02    0.275E-03
DAV:   6    -0.177357223212E+03   -0.90139E-06   -0.25652E-06  2792   0.808E-03
  87 F= -.17795584E+03 E0= -.17795584E+03  d E =-.439466E-03  mag=     0.0000
       N       E                     dE             d eps       ncg     rms          rms(c)
DAV:   1    -0.177357442264E+03   -0.21995E-03   -0.14659E-01  3217   0.165E+00    0.725E-02
DAV:   2    -0.177357674395E+03   -0.23213E-03   -0.32184E-03  3482   0.223E-01    0.414E-02
DAV:   3    -0.177357666708E+03    0.76872E-05   -0.64056E-05  3908   0.387E-02    0.252E-02
DAV:   4    -0.177357679862E+03   -0.13154E-04   -0.41790E-05  3460   0.337E-02    0.721E-03
DAV:   5    -0.177357680756E+03   -0.89403E-06   -0.99708E-06  3322   0.154E-02    0.396E-03
DAV:   6    -0.177357681432E+03   -0.67533E-06   -0.34753E-06  3184   0.932E-03
  88 F= -.17795608E+03 E0= -.17795608E+03  d E =-.239745E-03  mag=     0.0000
       N       E                     dE             d eps       ncg     rms          rms(c)
DAV:   1    -0.177357607513E+03    0.73243E-04   -0.32799E-01  3172   0.247E+00    0.109E-01
DAV:   2    -0.177358139687E+03   -0.53217E-03   -0.71848E-03  3456   0.333E-01    0.616E-02
DAV:   3    -0.177358120778E+03    0.18909E-04   -0.14086E-04  3853   0.569E-02    0.375E-02
DAV:   4    -0.177358141727E+03   -0.20949E-04   -0.87862E-05  3558   0.482E-02    0.105E-02
DAV:   5    -0.177358143870E+03   -0.21432E-05   -0.19346E-05  3402   0.206E-02    0.564E-03
DAV:   6    -0.177358144954E+03   -0.10839E-05   -0.56269E-06  3142   0.114E-02    0.232E-03
DAV:   7    -0.177358145471E+03   -0.51687E-06   -0.18566E-06  2355   0.730E-03
  89 F= -.17795622E+03 E0= -.17795622E+03  d E =-.377204E-03  mag=    -0.0000
       N       E                     dE             d eps       ncg     rms          rms(c)
DAV:   1    -0.177358334076E+03   -0.18912E-03   -0.69826E-02  3222   0.114E+00    0.498E-02
DAV:   2    -0.177358444916E+03   -0.11084E-03   -0.15379E-03  3516   0.154E-01    0.283E-02
DAV:   3    -0.177358442325E+03    0.25914E-05   -0.30740E-05  3851   0.272E-02    0.173E-02
DAV:   4    -0.177358452793E+03   -0.10468E-04   -0.20829E-05  3243   0.243E-02    0.481E-03
DAV:   5    -0.177358452876E+03   -0.83741E-07   -0.75533E-06  3327   0.138E-02    0.254E-03
DAV:   6    -0.177358453930E+03   -0.10534E-05   -0.34622E-06  2781   0.920E-03    0.102E-03
DAV:   7    -0.177358454218E+03   -0.28819E-06   -0.36344E-06  2792   0.886E-03
  90 F= -.17795638E+03 E0= -.17795638E+03  d E =-.166066E-03  mag=    -0.0000
       N       E                     dE             d eps       ncg     rms          rms(c)
DAV:   1    -0.177358587841E+03   -0.13391E-03   -0.77718E-02  3172   0.120E+00    0.524E-02
DAV:   2    -0.177358711240E+03   -0.12340E-03   -0.17087E-03  3522   0.163E-01    0.299E-02
DAV:   3    -0.177358708281E+03    0.29597E-05   -0.33377E-05  3852   0.281E-02    0.182E-02
DAV:   4    -0.177358718758E+03   -0.10478E-04   -0.22181E-05  3238   0.247E-02    0.511E-03
DAV:   5    -0.177358719172E+03   -0.41381E-06   -0.66788E-06  3322   0.128E-02    0.271E-03
DAV:   6    -0.177358719909E+03   -0.73682E-06   -0.26588E-06  2700   0.811E-03
  91 F= -.17795650E+03 E0= -.17795650E+03  d E =-.281246E-03  mag=     0.0000
       N       E                     dE             d eps       ncg     rms          rms(c)
DAV:   1    -0.177358566451E+03    0.15272E-03   -0.31089E-01  3172   0.240E+00    0.105E-01
DAV:   2    -0.177359081707E+03   -0.51526E-03   -0.68081E-03  3482   0.324E-01    0.596E-02
DAV:   3    -0.177359065865E+03    0.15842E-04   -0.12956E-04  3832   0.545E-02    0.364E-02
DAV:   4    -0.177359088375E+03   -0.22510E-04   -0.81521E-05  3460   0.466E-02    0.101E-02
DAV:   5    -0.177359090457E+03   -0.20825E-05   -0.18938E-05  3338   0.203E-02    0.540E-03
DAV:   6    -0.177359091637E+03   -0.11797E-05   -0.56751E-06  3152   0.114E-02    0.222E-03
DAV:   7    -0.177359092002E+03   -0.36505E-06   -0.24541E-06  2443   0.796E-03
  92 F= -.17795657E+03 E0= -.17795657E+03  d E =-.352382E-03  mag=     0.0000
       N       E                     dE             d eps       ncg     rms          rms(c)
DAV:   1    -0.177359274469E+03   -0.18283E-03   -0.73758E-02  3172   0.116E+00    0.518E-02
DAV:   2    -0.177359389637E+03   -0.11517E-03   -0.16359E-03  3416   0.158E-01    0.295E-02
DAV:   3    -0.177359386687E+03    0.29503E-05   -0.32146E-05  3814   0.281E-02    0.180E-02
DAV:   4    -0.177359398490E+03   -0.11804E-04   -0.23790E-05  3215   0.257E-02    0.506E-03
DAV:   5    -0.177359398290E+03    0.20032E-06   -0.87876E-06  3327   0.149E-02    0.267E-03
DAV:   6    -0.177359399282E+03   -0.99167E-06   -0.40426E-06  2945   0.980E-03
  93 F= -.17795672E+03 E0= -.17795672E+03  d E =-.151244E-03  mag=     0.0000
       N       E                     dE             d eps       ncg     rms          rms(c)
DAV:   1    -0.177358936544E+03    0.46175E-03   -0.66373E-01  3172   0.349E+00    0.154E-01
DAV:   2    -0.177360045676E+03   -0.11091E-02   -0.14578E-02  3386   0.471E-01    0.882E-02
DAV:   3    -0.177360006539E+03    0.39137E-04   -0.27161E-04  3872   0.799E-02    0.536E-02
DAV:   4    -0.177360047681E+03   -0.41142E-04   -0.18301E-04  3426   0.692E-02    0.148E-02
DAV:   5    -0.177360049736E+03   -0.20555E-05   -0.44051E-05  3322   0.312E-02    0.779E-03
DAV:   6    -0.177360051890E+03   -0.21540E-05   -0.13297E-05  3342   0.174E-02    0.333E-03
DAV:   7    -0.177360053294E+03   -0.14037E-05   -0.76645E-06  3032   0.139E-02    0.168E-03
DAV:   8    -0.177360055533E+03   -0.22388E-05   -0.10944E-05  3057   0.153E-02    0.101E-03
DAV:   9    -0.177360052590E+03    0.29423E-05   -0.52894E-06  2907   0.104E-02    0.770E-04
DAV:  10    -0.177360052917E+03   -0.32672E-06   -0.61524E-07  2357   0.365E-03
  94 F= -.17795691E+03 E0= -.17795691E+03  d E =-.336900E-03  mag=     0.0000
       N       E                     dE             d eps       ncg     rms          rms(c)
DAV:   1    -0.177360278623E+03   -0.22603E-03   -0.10291E-01  3172   0.138E+00    0.620E-02
DAV:   2    -0.177360439547E+03   -0.16092E-03   -0.22798E-03  3451   0.185E-01    0.354E-02
DAV:   3    -0.177360435691E+03    0.38560E-05   -0.41870E-05  3858   0.308E-02    0.216E-02
DAV:   4    -0.177360448915E+03   -0.13224E-04   -0.30973E-05  3440   0.271E-02    0.624E-03
DAV:   5    -0.177360449847E+03   -0.93238E-06   -0.62394E-06  3104   0.107E-02    0.324E-03
DAV:   6    -0.177360450300E+03   -0.45222E-06   -0.15969E-06  2620   0.516E-03
  95 F= -.17795712E+03 E0= -.17795712E+03  d E =-.213609E-03  mag=     0.0000
       N       E                     dE             d eps       ncg     rms          rms(c)
DAV:   1    -0.177359762929E+03    0.68692E-03   -0.92640E-01  3172   0.413E+00    0.186E-01
DAV:   2    -0.177361298598E+03   -0.15357E-02   -0.20364E-02  3406   0.554E-01    0.105E-01
DAV:   3    -0.177361245411E+03    0.53187E-04   -0.36918E-04  3882   0.914E-02    0.640E-02
DAV:   4    -0.177361296774E+03   -0.51363E-04   -0.26202E-04  3480   0.795E-02    0.179E-02
DAV:   5    -0.177361299485E+03   -0.27110E-05   -0.53853E-05  3654   0.312E-02    0.951E-03
DAV:   6    -0.177361300855E+03   -0.13691E-05   -0.14010E-05  3250   0.151E-02    0.382E-03
DAV:   7    -0.177361301831E+03   -0.97636E-06   -0.10860E-06  2248   0.533E-03
  96 F= -.17795742E+03 E0= -.17795742E+03  d E =-.513989E-03  mag=     0.0000
       N       E                     dE             d eps       ncg     rms          rms(c)
DAV:   1    -0.177361556128E+03   -0.25527E-03   -0.85487E-02  3172   0.127E+00    0.578E-02
DAV:   2    -0.177361688197E+03   -0.13207E-03   -0.19238E-03  3528   0.172E-01    0.331E-02
DAV:   3    -0.177361684992E+03    0.32051E-05   -0.40583E-05  3988   0.307E-02    0.201E-02
DAV:   4    -0.177361696830E+03   -0.11838E-04   -0.26238E-05  3502   0.253E-02    0.590E-03
DAV:   5    -0.177361698277E+03   -0.14472E-05   -0.54187E-06  3030   0.102E-02    0.297E-03
DAV:   6    -0.177361699044E+03   -0.76666E-06   -0.13126E-06  2578   0.506E-03
  97 F= -.17795764E+03 E0= -.17795764E+03  d E =-.222995E-03  mag=     0.0000
       N       E                     dE             d eps       ncg     rms          rms(c)
DAV:   1    -0.177361850476E+03   -0.15220E-03   -0.17708E-01  3172   0.182E+00    0.830E-02
DAV:   2    -0.177362131889E+03   -0.28141E-03   -0.39671E-03  3548   0.248E-01    0.477E-02
DAV:   3    -0.177362122809E+03    0.90795E-05   -0.82467E-05  3984   0.440E-02    0.289E-02
DAV:   4    -0.177362140822E+03   -0.18013E-04   -0.55128E-05  3518   0.365E-02    0.852E-03
DAV:   5    -0.177362142501E+03   -0.16789E-05   -0.11385E-05  3228   0.147E-02    0.430E-03
DAV:   6    -0.177362143287E+03   -0.78553E-06   -0.29326E-06  2980   0.730E-03
  98 F= -.17795784E+03 E0= -.17795784E+03  d E =-.416470E-03  mag=     0.0000
       N       E                     dE             d eps       ncg     rms          rms(c)
DAV:   1    -0.177361411385E+03    0.73112E-03   -0.70828E-01  3172   0.365E+00    0.165E-01
DAV:   2    -0.177362574741E+03   -0.11634E-02   -0.15782E-02  3512   0.494E-01    0.949E-02
DAV:   3    -0.177362528445E+03    0.46296E-04   -0.32653E-04  4010   0.874E-02    0.576E-02
DAV:   4    -0.177362570648E+03   -0.42204E-04   -0.21265E-04  3538   0.720E-02    0.167E-02
DAV:   5    -0.177362574317E+03   -0.36684E-05   -0.44135E-05  3650   0.287E-02    0.845E-03
DAV:   6    -0.177362575716E+03   -0.13993E-05   -0.11017E-05  3194   0.140E-02    0.378E-03
DAV:   7    -0.177362576651E+03   -0.93549E-06   -0.10888E-06  2112   0.580E-03
  99 F= -.17795777E+03 E0= -.17795777E+03  d E =-.348503E-03  mag=    -0.0000
       N       E                     dE             d eps       ncg     rms          rms(c)
DAV:   1    -0.177361996717E+03    0.57900E-03   -0.24125E-01  3172   0.213E+00    0.972E-02
DAV:   2    -0.177362388988E+03   -0.39227E-03   -0.54673E-03  3502   0.290E-01    0.565E-02
DAV:   3    -0.177362374699E+03    0.14289E-04   -0.11515E-04  4014   0.520E-02    0.344E-02
DAV:   4    -0.177362398218E+03   -0.23518E-04   -0.83771E-05  3558   0.446E-02    0.106E-02
DAV:   5    -0.177362400082E+03   -0.18640E-05   -0.17229E-05  3348   0.184E-02    0.529E-03
DAV:   6    -0.177362400742E+03   -0.66056E-06   -0.46468E-06  3190   0.933E-03
 100 F= -.17795789E+03 E0= -.17795789E+03  d E =-.465235E-03  mag=     0.0000
       N       E                     dE             d eps       ncg     rms          rms(c)
DAV:   1    -0.177362577039E+03   -0.17696E-03   -0.82895E-02  3202   0.125E+00    0.563E-02
DAV:   2    -0.177362705549E+03   -0.12851E-03   -0.18612E-03  3526   0.170E-01    0.328E-02
DAV:   3    -0.177362700980E+03    0.45689E-05   -0.39528E-05  3944   0.305E-02    0.200E-02
DAV:   4    -0.177362711558E+03   -0.10577E-04   -0.28131E-05  3520   0.268E-02    0.594E-03
DAV:   5    -0.177362712467E+03   -0.90974E-06   -0.61215E-06  3172   0.115E-02    0.322E-03
DAV:   6    -0.177362712777E+03   -0.30984E-06   -0.17837E-06  2916   0.628E-03
 101 F= -.17795803E+03 E0= -.17795803E+03  d E =-.144898E-03  mag=     0.0000
       N       E                     dE             d eps       ncg     rms          rms(c)
DAV:   1    -0.177362746375E+03   -0.33908E-04   -0.17453E-01  3172   0.181E+00    0.821E-02
DAV:   2    -0.177363024595E+03   -0.27822E-03   -0.39115E-03  3502   0.246E-01    0.474E-02
DAV:   3    -0.177363014913E+03    0.96828E-05   -0.81901E-05  3904   0.438E-02    0.288E-02
DAV:   4    -0.177363032093E+03   -0.17180E-04   -0.56065E-05  3500   0.377E-02    0.841E-03
DAV:   5    -0.177363033525E+03   -0.14320E-05   -0.11974E-05  3298   0.157E-02    0.450E-03
DAV:   6    -0.177363034072E+03   -0.54748E-06   -0.33179E-06  3129   0.829E-03
 102 F= -.17795811E+03 E0= -.17795811E+03  d E =-.223768E-03  mag=     0.0000
       N       E                     dE             d eps       ncg     rms          rms(c)
DAV:   1    -0.177363184552E+03   -0.15103E-03   -0.19729E-02  3232   0.611E-01    0.275E-02
DAV:   2    -0.177363212047E+03   -0.27495E-04   -0.43642E-04  3529   0.828E-02    0.158E-02
DAV:   3    -0.177363212179E+03   -0.13264E-06   -0.97577E-06  3842   0.153E-02    0.948E-03
DAV:   4    -0.177363216759E+03   -0.45792E-05   -0.58196E-06  3245   0.131E-02    0.273E-03
DAV:   5    -0.177363217262E+03   -0.50300E-06   -0.15316E-06  2446   0.651E-03    0.161E-03
DAV:   6    -0.177363217656E+03   -0.39466E-06   -0.98541E-07  2277   0.511E-03
 103 F= -.17795821E+03 E0= -.17795821E+03  d E =-.978777E-04  mag=    -0.0000
       N       E                     dE             d eps       ncg     rms          rms(c)
DAV:   1    -0.177363369203E+03   -0.15194E-03   -0.17750E-01  3172   0.183E+00    0.817E-02
DAV:   2    -0.177363646864E+03   -0.27766E-03   -0.39095E-03  3534   0.247E-01    0.473E-02
DAV:   3    -0.177363636878E+03    0.99865E-05   -0.86379E-05  3922   0.449E-02    0.285E-02
DAV:   4    -0.177363651238E+03   -0.14360E-04   -0.51428E-05  3604   0.377E-02    0.839E-03
DAV:   5    -0.177363653509E+03   -0.22714E-05   -0.10699E-05  3391   0.153E-02    0.466E-03
DAV:   6    -0.177363654199E+03   -0.69020E-06   -0.35893E-06  3139   0.912E-03
 104 F= -.17795839E+03 E0= -.17795839E+03  d E =-.277406E-03  mag=    -0.0000
       N       E                     dE             d eps       ncg     rms          rms(c)
DAV:   1    -0.177362916208E+03    0.73730E-03   -0.71008E-01  3172   0.367E+00    0.163E-01
DAV:   2    -0.177364066189E+03   -0.11500E-02   -0.15578E-02  3514   0.494E-01    0.941E-02
DAV:   3    -0.177364017114E+03    0.49075E-04   -0.34352E-04  3892   0.895E-02    0.568E-02
DAV:   4    -0.177364047782E+03   -0.30668E-04   -0.19942E-04  3604   0.744E-02    0.166E-02
DAV:   5    -0.177364053841E+03   -0.60592E-05   -0.41108E-05  3824   0.292E-02    0.940E-03
DAV:   6    -0.177364055098E+03   -0.12570E-05   -0.12765E-05  3362   0.168E-02    0.377E-03
DAV:   7    -0.177364055912E+03   -0.81359E-06   -0.17635E-06  2594   0.768E-03
 105 F= -.17795828E+03 E0= -.17795828E+03  d E =-.165512E-03  mag=     0.0000
       N       E                     dE             d eps       ncg     rms          rms(c)
DAV:   1    -0.177363296555E+03    0.75854E-03   -0.33788E-01  3172   0.253E+00    0.114E-01
DAV:   2    -0.177363839649E+03   -0.54309E-03   -0.75538E-03  3444   0.343E-01    0.661E-02
DAV:   3    -0.177363819170E+03    0.20479E-04   -0.16928E-04  3926   0.631E-02    0.401E-02
DAV:   4    -0.177363842752E+03   -0.23582E-04   -0.11011E-04  3614   0.550E-02    0.124E-02
DAV:   5    -0.177363846056E+03   -0.33045E-05   -0.22328E-05  3530   0.221E-02    0.703E-03
DAV:   6    -0.177363846825E+03   -0.76814E-06   -0.77770E-06  3316   0.133E-02
 106 F= -.17795842E+03 E0= -.17795842E+03  d E =-.310755E-03  mag=     0.0000
       N       E                     dE             d eps       ncg     rms          rms(c)
DAV:   1    -0.177364050871E+03   -0.20481E-03   -0.37069E-02  3302   0.839E-01    0.373E-02
DAV:   2    -0.177364103044E+03   -0.52173E-04   -0.81342E-04  3540   0.113E-01    0.218E-02
DAV:   3    -0.177364100993E+03    0.20512E-05   -0.18548E-05  3979   0.212E-02    0.133E-02
DAV:   4    -0.177364106634E+03   -0.56406E-05   -0.13143E-05  3482   0.194E-02    0.402E-03
DAV:   5    -0.177364107051E+03   -0.41693E-06   -0.32056E-06  3170   0.929E-03    0.234E-03
DAV:   6    -0.177364107395E+03   -0.34410E-06   -0.14436E-06  2602   0.619E-03
 107 F= -.17795855E+03 E0= -.17795855E+03  d E =-.127588E-03  mag=     0.0000
       N       E                     dE             d eps       ncg     rms          rms(c)
DAV:   1    -0.177364154949E+03   -0.47898E-04   -0.29238E-01  3172   0.236E+00    0.105E-01
DAV:   2    -0.177364604250E+03   -0.44930E-03   -0.63713E-03  3540   0.315E-01    0.607E-02
DAV:   3    -0.177364583406E+03    0.20845E-04   -0.13944E-04  3878   0.573E-02    0.367E-02
DAV:   4    -0.177364601497E+03   -0.18091E-04   -0.91687E-05  3610   0.500E-02    0.107E-02
DAV:   5    -0.177364603561E+03   -0.20642E-05   -0.19147E-05  3500   0.211E-02    0.598E-03
DAV:   6    -0.177364604476E+03   -0.91458E-06   -0.61775E-06  3162   0.121E-02
 108 F= -.17795867E+03 E0= -.17795867E+03  d E =-.251529E-03  mag=     0.0000
       N       E                     dE             d eps       ncg     rms          rms(c)
DAV:   1    -0.177364755261E+03   -0.15170E-03   -0.20711E-02  3252   0.625E-01    0.278E-02
DAV:   2    -0.177364784275E+03   -0.29014E-04   -0.45012E-04  3580   0.837E-02    0.159E-02
DAV:   3    -0.177364784042E+03    0.23357E-06   -0.94616E-06  3860   0.152E-02    0.966E-03
DAV:   4    -0.177364789024E+03   -0.49819E-05   -0.70584E-06  3218   0.140E-02    0.283E-03
DAV:   5    -0.177364789137E+03   -0.11326E-06   -0.24814E-06  2598   0.827E-03    0.157E-03
DAV:   6    -0.177364789968E+03   -0.83059E-06   -0.16148E-06  2370   0.632E-03
 109 F= -.17795876E+03 E0= -.17795876E+03  d E =-.829168E-04  mag=     0.0000
       N       E                     dE             d eps       ncg     rms          rms(c)
DAV:   1    -0.177364967472E+03   -0.17834E-03   -0.18628E-01  3172   0.187E+00    0.826E-02
DAV:   2    -0.177365257267E+03   -0.28980E-03   -0.40365E-03  3540   0.250E-01    0.475E-02
DAV:   3    -0.177365247368E+03    0.98996E-05   -0.82073E-05  3790   0.434E-02    0.290E-02
DAV:   4    -0.177365262921E+03   -0.15553E-04   -0.56685E-05  3580   0.386E-02    0.862E-03
DAV:   5    -0.177365264109E+03   -0.11883E-05   -0.12248E-05  3186   0.172E-02    0.481E-03
DAV:   6    -0.177365265050E+03   -0.94111E-06   -0.44549E-06  3167   0.103E-02
 110 F= -.17795892E+03 E0= -.17795892E+03  d E =-.250384E-03  mag=    -0.0000
       N       E                     dE             d eps       ncg     rms          rms(c)
DAV:   1    -0.177364660243E+03    0.60387E-03   -0.74520E-01  3172   0.375E+00    0.165E-01
DAV:   2    -0.177365858249E+03   -0.11980E-02   -0.16082E-02  3530   0.498E-01    0.946E-02
DAV:   3    -0.177365810517E+03    0.47732E-04   -0.32217E-04  3774   0.855E-02    0.577E-02
DAV:   4    -0.177365846499E+03   -0.35982E-04   -0.21407E-04  3600   0.748E-02    0.168E-02
DAV:   5    -0.177365849953E+03   -0.34541E-05   -0.44160E-05  3524   0.313E-02    0.937E-03
DAV:   6    -0.177365851727E+03   -0.17747E-05   -0.14177E-05  3178   0.177E-02    0.366E-03
DAV:   7    -0.177365852976E+03   -0.12489E-05   -0.35045E-06  2949   0.101E-02    0.207E-03
DAV:   8    -0.177365855306E+03   -0.23294E-05   -0.40342E-06  2906   0.100E-02    0.111E-03
DAV:   9    -0.177365855561E+03   -0.25515E-06   -0.29168E-06  2551   0.793E-03
 111 F= -.17795890E+03 E0= -.17795890E+03  d E =-.226251E-03  mag=     0.0000
       N       E                     dE             d eps       ncg     rms          rms(c)
DAV:   1    -0.177365251160E+03    0.60415E-03   -0.21146E-01  3172   0.200E+00    0.886E-02
DAV:   2    -0.177365585304E+03   -0.33414E-03   -0.46258E-03  3560   0.268E-01    0.512E-02
DAV:   3    -0.177365575659E+03    0.96454E-05   -0.96346E-05  3950   0.470E-02    0.313E-02
DAV:   4    -0.177365596910E+03   -0.21251E-04   -0.69076E-05  3625   0.424E-02    0.969E-03
DAV:   5    -0.177365598371E+03   -0.14616E-05   -0.14777E-05  3508   0.190E-02    0.532E-03
DAV:   6    -0.177365599435E+03   -0.10635E-05   -0.56630E-06  3273   0.116E-02    0.201E-03
DAV:   7    -0.177365599811E+03   -0.37587E-06   -0.29747E-06  2553   0.867E-03
 112 F= -.17795897E+03 E0= -.17795897E+03  d E =-.297915E-03  mag=     0.0000
       N       E                     dE             d eps       ncg     rms          rms(c)
DAV:   1    -0.177365684358E+03   -0.84923E-04   -0.12396E-03  3357   0.167E-01    0.965E-03
DAV:   2    -0.177365684541E+03   -0.18309E-06   -0.35173E-05  3660   0.275E-02    0.577E-03
DAV:   3    -0.177365683971E+03    0.57048E-06   -0.36883E-06  2495   0.104E-02    0.299E-03
DAV:   4    -0.177365685235E+03   -0.12647E-05   -0.43860E-06  2784   0.104E-02    0.103E-03
DAV:   5    -0.177365685262E+03   -0.26912E-07   -0.57234E-06  2872   0.111E-02    0.668E-04
DAV:   6    -0.177365684179E+03    0.10833E-05   -0.28856E-06  2485   0.743E-03    0.393E-04
DAV:   7    -0.177365684017E+03    0.16196E-06   -0.68172E-07  2390   0.351E-03
 113 F= -.17795903E+03 E0= -.17795903E+03  d E =-.623415E-04  mag=    -0.0000
       N       E                     dE             d eps       ncg     rms          rms(c)
DAV:   1    -0.177365811802E+03   -0.12762E-03   -0.91396E-03  3342   0.452E-01    0.261E-02
DAV:   2    -0.177365817039E+03   -0.52364E-05   -0.23676E-04  3874   0.670E-02    0.156E-02
DAV:   3    -0.177365813639E+03    0.34000E-05   -0.15797E-05  3722   0.193E-02    0.790E-03
DAV:   4    -0.177365814048E+03   -0.40980E-06   -0.62876E-06  3309   0.115E-02    0.282E-03
DAV:   5    -0.177365814174E+03   -0.12541E-06   -0.77937E-07  2040   0.460E-03    0.126E-03
DAV:   6    -0.177365814243E+03   -0.68685E-07   -0.33273E-07  1960   0.280E-03
 114 F= -.17795910E+03 E0= -.17795910E+03  d E =-.133156E-03  mag=    -0.0000
       N       E                     dE             d eps       ncg     rms          rms(c)
DAV:   1    -0.177365887521E+03   -0.73348E-04   -0.11104E-03  3292   0.159E-01    0.761E-03
DAV:   2    -0.177365888437E+03   -0.91587E-06   -0.25101E-05  3843   0.217E-02    0.484E-03
DAV:   3    -0.177365888317E+03    0.12033E-06   -0.99717E-07  2159   0.542E-03    0.291E-03
DAV:   4    -0.177365888544E+03   -0.22694E-06   -0.10799E-06  2198   0.498E-03    0.101E-03
DAV:   5    -0.177365888555E+03   -0.10941E-07   -0.21524E-07  2010   0.236E-03    0.656E-04
DAV:   6    -0.177365888584E+03   -0.29184E-07   -0.11266E-07  1970   0.170E-03
 115 F= -.17795915E+03 E0= -.17795915E+03  d E =-.491678E-04  mag=     0.0000
       N       E                     dE             d eps       ncg     rms          rms(c)
DAV:   1    -0.177366039000E+03   -0.15045E-03   -0.99889E-03  3222   0.476E-01    0.229E-02
DAV:   2    -0.177366049485E+03   -0.10485E-04   -0.22869E-04  3774   0.655E-02    0.145E-02
DAV:   3    -0.177366047750E+03    0.17352E-05   -0.10690E-05  4005   0.163E-02    0.864E-03
DAV:   4    -0.177366048385E+03   -0.63525E-06   -0.59921E-06  3450   0.118E-02    0.311E-03
DAV:   5    -0.177366048498E+03   -0.11329E-06   -0.78506E-07  2072   0.481E-03    0.149E-03
DAV:   6    -0.177366048536E+03   -0.37417E-07   -0.56592E-07  2010   0.366E-03
 116 F= -.17795924E+03 E0= -.17795924E+03  d E =-.133607E-03  mag=    -0.0000
       N       E                     dE             d eps       ncg     rms          rms(c)
DAV:   1    -0.177366083944E+03   -0.35445E-04   -0.15386E-03  3312   0.187E-01    0.892E-03
DAV:   2    -0.177366085290E+03   -0.13466E-05   -0.34764E-05  3818   0.255E-02    0.567E-03
DAV:   3    -0.177366085089E+03    0.20188E-06   -0.13788E-06  2380   0.637E-03    0.339E-03
DAV:   4    -0.177366085365E+03   -0.27612E-06   -0.15289E-06  2368   0.584E-03    0.123E-03
DAV:   5    -0.177366085367E+03   -0.22883E-08   -0.28941E-07  2010   0.273E-03    0.770E-04
DAV:   6    -0.177366085398E+03   -0.31114E-07   -0.16465E-07  2015   0.202E-03
 117 F= -.17795924E+03 E0= -.17795924E+03  d E =-.140855E-03  mag=     0.0000
       N       E                     dE             d eps       ncg     rms          rms(c)
DAV:   1    -0.177366149632E+03   -0.64265E-04   -0.15743E-03  3262   0.186E-01    0.869E-03
DAV:   2    -0.177366150410E+03   -0.77756E-06   -0.30670E-05  3650   0.245E-02    0.534E-03
DAV:   3    -0.177366150400E+03    0.93005E-08   -0.14016E-06  2350   0.609E-03    0.303E-03
DAV:   4    -0.177366150827E+03   -0.42686E-06   -0.75413E-07  1970   0.489E-03    0.870E-04
DAV:   5    -0.177366150890E+03   -0.62719E-07   -0.26790E-07  2052   0.256E-03    0.562E-04
DAV:   6    -0.177366150911E+03   -0.21271E-07   -0.15472E-07  1990   0.203E-03
 118 F= -.17795929E+03 E0= -.17795929E+03  d E =-.439225E-04  mag=     0.0000
       N       E                     dE             d eps       ncg     rms          rms(c)
DAV:   1    -0.177366266686E+03   -0.11580E-03   -0.14163E-02  3212   0.557E-01    0.261E-02
DAV:   2    -0.177366276369E+03   -0.96823E-05   -0.27666E-04  3630   0.735E-02    0.160E-02
DAV:   3    -0.177366275143E+03    0.12258E-05   -0.14842E-05  3818   0.182E-02    0.917E-03
DAV:   4    -0.177366276310E+03   -0.11669E-05   -0.47612E-06  3526   0.117E-02    0.329E-03
DAV:   5    -0.177366276635E+03   -0.32536E-06   -0.89243E-07  2126   0.533E-03    0.144E-03
DAV:   6    -0.177366276687E+03   -0.51914E-07   -0.68793E-07  2101   0.428E-03
 119 F= -.17795935E+03 E0= -.17795935E+03  d E =-.104961E-03  mag=     0.0000
       N       E                     dE             d eps       ncg     rms          rms(c)
DAV:   1    -0.177366320033E+03   -0.43398E-04   -0.22171E-03  3342   0.219E-01    0.983E-03
DAV:   2    -0.177366321771E+03   -0.17384E-05   -0.43862E-05  3932   0.287E-02    0.661E-03
DAV:   3    -0.177366321414E+03    0.35748E-06   -0.22537E-06  2730   0.769E-03    0.348E-03
DAV:   4    -0.177366321814E+03   -0.40063E-06   -0.12163E-06  1946   0.574E-03    0.112E-03
DAV:   5    -0.177366321930E+03   -0.11622E-06   -0.33965E-07  2000   0.284E-03    0.664E-04
DAV:   6    -0.177366322085E+03   -0.15434E-06   -0.23690E-07  2150   0.240E-03
 120 F= -.17795939E+03 E0= -.17795939E+03  d E =-.377484E-04  mag=    -0.0000
       N       E                     dE             d eps       ncg     rms          rms(c)
DAV:   1    -0.177366348179E+03   -0.26249E-04   -0.40367E-03  3212   0.296E-01    0.133E-02
DAV:   2    -0.177366351371E+03   -0.31916E-05   -0.80142E-05  3828   0.390E-02    0.891E-03
DAV:   3    -0.177366350585E+03    0.78520E-06   -0.44449E-06  3590   0.105E-02    0.471E-03
DAV:   4    -0.177366351083E+03   -0.49779E-06   -0.18400E-06  2210   0.719E-03    0.164E-03
DAV:   5    -0.177366351233E+03   -0.15006E-06   -0.45416E-07  2040   0.337E-03    0.837E-04
DAV:   6    -0.177366351377E+03   -0.14391E-06   -0.31481E-07  2171   0.284E-03
 121 F= -.17795941E+03 E0= -.17795941E+03  d E =-.567290E-04  mag=    -0.0000
       N       E                     dE             d eps       ncg     rms          rms(c)
DAV:   1    -0.177366375889E+03   -0.24656E-04   -0.61018E-04  3322   0.114E-01    0.426E-03
DAV:   2    -0.177366376410E+03   -0.52131E-06   -0.10119E-05  3564   0.140E-02    0.284E-03
DAV:   3    -0.177366376457E+03   -0.46541E-07   -0.30773E-07  2040   0.303E-03    0.163E-03
DAV:   4    -0.177366376678E+03   -0.22092E-06   -0.27377E-07  1950   0.299E-03    0.407E-04
DAV:   5    -0.177366376697E+03   -0.19634E-07   -0.13488E-07  2015   0.177E-03    0.363E-04
DAV:   6    -0.177366376744E+03   -0.46362E-07   -0.80723E-08  1935   0.135E-03
 122 F= -.17795943E+03 E0= -.17795943E+03  d E =-.197021E-04  mag=    -0.0000
       N       E                     dE             d eps       ncg     rms          rms(c)
DAV:   1    -0.177366438200E+03   -0.61502E-04   -0.54868E-03  3177   0.341E-01    0.128E-02
DAV:   2    -0.177366443291E+03   -0.50914E-05   -0.90996E-05  3530   0.419E-02    0.851E-03
DAV:   3    -0.177366443066E+03    0.22490E-06   -0.30543E-06  3046   0.881E-03    0.489E-03
DAV:   4    -0.177366443829E+03   -0.76278E-06   -0.18018E-06  2340   0.770E-03    0.131E-03
DAV:   5    -0.177366443908E+03   -0.79364E-07   -0.48428E-07  2182   0.360E-03    0.910E-04
DAV:   6    -0.177366443994E+03   -0.85694E-07   -0.31951E-07  1996   0.301E-03
 123 F= -.17795948E+03 E0= -.17795948E+03  d E =-.699671E-04  mag=     0.0000
       N       E                     dE             d eps       ncg     rms          rms(c)
DAV:   1    -0.177366514669E+03   -0.70760E-04   -0.21944E-02  3172   0.683E-01    0.257E-02
DAV:   2    -0.177366537065E+03   -0.22396E-04   -0.36326E-04  3542   0.837E-02    0.170E-02
DAV:   3    -0.177366535394E+03    0.16712E-05   -0.12656E-05  3686   0.174E-02    0.970E-03
DAV:   4    -0.177366536848E+03   -0.14545E-05   -0.61091E-06  3446   0.140E-02    0.295E-03
DAV:   5    -0.177366537130E+03   -0.28157E-06   -0.12081E-06  2120   0.571E-03    0.178E-03
DAV:   6    -0.177366537237E+03   -0.10752E-06   -0.91625E-07  2202   0.470E-03
 124 F= -.17795954E+03 E0= -.17795954E+03  d E =-.129294E-03  mag=     0.0000
       N       E                     dE             d eps       ncg     rms          rms(c)
DAV:   1    -0.177366468414E+03    0.68715E-04   -0.87753E-02  3172   0.137E+00    0.514E-02
DAV:   2    -0.177366563917E+03   -0.95503E-04   -0.14519E-03  3552   0.167E-01    0.340E-02
DAV:   3    -0.177366554934E+03    0.89829E-05   -0.50138E-05  3722   0.346E-02    0.194E-02
DAV:   4    -0.177366556872E+03   -0.19378E-05   -0.24256E-05  3510   0.277E-02    0.587E-03
DAV:   5    -0.177366557718E+03   -0.84648E-06   -0.50296E-06  3304   0.108E-02    0.328E-03
DAV:   6    -0.177366557879E+03   -0.16057E-06   -0.19363E-06  2634   0.668E-03
 125 F= -.17795949E+03 E0= -.17795949E+03  d E =-.822715E-04  mag=    -0.0000
       N       E                     dE             d eps       ncg     rms          rms(c)
DAV:   1    -0.177366519105E+03    0.38613E-04   -0.46220E-02  3172   0.991E-01    0.375E-02
DAV:   2    -0.177366567174E+03   -0.48068E-04   -0.76717E-04  3502   0.122E-01    0.248E-02
DAV:   3    -0.177366562782E+03    0.43916E-05   -0.27487E-05  3666   0.256E-02    0.143E-02
DAV:   4    -0.177366564222E+03   -0.14398E-05   -0.13584E-05  3546   0.208E-02    0.456E-03
DAV:   5    -0.177366564763E+03   -0.54081E-06   -0.26864E-06  2534   0.811E-03    0.266E-03
DAV:   6    -0.177366564844E+03   -0.81316E-07   -0.16137E-06  2544   0.589E-03
 126 F= -.17795954E+03 E0= -.17795954E+03  d E =-.138318E-03  mag=     0.0000
       N       E                     dE             d eps       ncg     rms          rms(c)
DAV:   1    -0.177366634666E+03   -0.69904E-04   -0.22834E-03  3302   0.221E-01    0.917E-03
DAV:   2    -0.177366636596E+03   -0.19294E-05   -0.43844E-05  3756   0.287E-02    0.612E-03
DAV:   3    -0.177366636339E+03    0.25692E-06   -0.13171E-06  2212   0.619E-03    0.374E-03
DAV:   4    -0.177366636743E+03   -0.40385E-06   -0.15414E-06  2128   0.654E-03    0.112E-03
DAV:   5    -0.177366636749E+03   -0.61082E-08   -0.34222E-07  2036   0.297E-03    0.820E-04
DAV:   6    -0.177366636760E+03   -0.10754E-07   -0.15668E-07  1990   0.213E-03
 127 F= -.17795958E+03 E0= -.17795958E+03  d E =-.382841E-04  mag=    -0.0000
       N       E                     dE             d eps       ncg     rms          rms(c)
DAV:   1    -0.177366772247E+03   -0.13550E-03   -0.20566E-02  3172   0.663E-01    0.271E-02
DAV:   2    -0.177366794190E+03   -0.21944E-04   -0.38968E-04  3666   0.850E-02    0.182E-02
DAV:   3    -0.177366791430E+03    0.27597E-05   -0.13108E-05  3730   0.181E-02    0.109E-02
DAV:   4    -0.177366792790E+03   -0.13593E-05   -0.90419E-06  3466   0.161E-02    0.319E-03
DAV:   5    -0.177366792942E+03   -0.15209E-06   -0.18618E-06  2432   0.700E-03    0.199E-03
DAV:   6    -0.177366793044E+03   -0.10207E-06   -0.11393E-06  2592   0.492E-03
 128 F= -.17795964E+03 E0= -.17795964E+03  d E =-.937055E-04  mag=     0.0000
       N       E                     dE             d eps       ncg     rms          rms(c)
DAV:   1    -0.177366856072E+03   -0.63131E-04   -0.17500E-03  3322   0.194E-01    0.905E-03
DAV:   2    -0.177366857203E+03   -0.11309E-05   -0.35002E-05  3806   0.253E-02    0.572E-03
DAV:   3    -0.177366857070E+03    0.13376E-06   -0.13265E-06  2134   0.632E-03    0.328E-03
DAV:   4    -0.177366857586E+03   -0.51614E-06   -0.14422E-06  2274   0.621E-03    0.103E-03
DAV:   5    -0.177366857602E+03   -0.15812E-07   -0.51293E-07  2239   0.364E-03    0.694E-04
DAV:   6    -0.177366857655E+03   -0.53600E-07   -0.29150E-07  2176   0.263E-03
 129 F= -.17795967E+03 E0= -.17795967E+03  d E =-.334475E-04  mag=    -0.0000
       N       E                     dE             d eps       ncg     rms          rms(c)
DAV:   1    -0.177366987651E+03   -0.13005E-03   -0.15765E-02  3172   0.581E-01    0.271E-02
DAV:   2    -0.177367001067E+03   -0.13416E-04   -0.32000E-04  3704   0.764E-02    0.172E-02
DAV:   3    -0.177366998260E+03    0.28071E-05   -0.13687E-05  3590   0.190E-02    0.987E-03
DAV:   4    -0.177366999788E+03   -0.15283E-05   -0.90718E-06  3398   0.158E-02    0.318E-03
DAV:   5    -0.177366999872E+03   -0.83972E-07   -0.20917E-06  2738   0.788E-03    0.182E-03
DAV:   6    -0.177367000094E+03   -0.22170E-06   -0.14973E-06  2801   0.596E-03
 130 F= -.17795972E+03 E0= -.17795972E+03  d E =-.824332E-04  mag=     0.0000
       N       E                     dE             d eps       ncg     rms          rms(c)
DAV:   1    -0.177367014121E+03   -0.14249E-04   -0.34241E-04  3282   0.857E-02    0.399E-03
DAV:   2    -0.177367014259E+03   -0.13783E-06   -0.70844E-06  3349   0.119E-02    0.254E-03
DAV:   3    -0.177367014256E+03    0.32287E-08   -0.52977E-07  2280   0.400E-03    0.142E-03
DAV:   4    -0.177367014640E+03   -0.38357E-06   -0.77861E-07  2315   0.440E-03    0.443E-04
DAV:   5    -0.177367014562E+03    0.77744E-07   -0.94568E-07  2380   0.433E-03    0.366E-04
DAV:   6    -0.177367014450E+03    0.11140E-06   -0.39309E-07  2362   0.259E-03
 131 F= -.17795972E+03 E0= -.17795972E+03  d E =-.830404E-04  mag=    -0.0000
       N       E                     dE             d eps       ncg     rms          rms(c)
DAV:   1    -0.177367094486E+03   -0.79924E-04   -0.38366E-03  3172   0.286E-01    0.123E-02
DAV:   2    -0.177367098098E+03   -0.36121E-05   -0.72737E-05  3510   0.365E-02    0.808E-03
DAV:   3    -0.177367097736E+03    0.36158E-06   -0.21480E-06  2406   0.812E-03    0.485E-03
DAV:   4    -0.177367098514E+03   -0.77793E-06   -0.25947E-06  2732   0.862E-03    0.164E-03
DAV:   5    -0.177367098483E+03    0.31241E-07   -0.54374E-07  1990   0.390E-03    0.120E-03
DAV:   6    -0.177367098516E+03   -0.33173E-07   -0.37224E-07  1980   0.305E-03
 132 F= -.17795975E+03 E0= -.17795975E+03  d E =-.339255E-04  mag=     0.0000
       N       E                     dE             d eps       ncg     rms          rms(c)
DAV:   1    -0.177367272725E+03   -0.17424E-03   -0.34533E-02  3172   0.857E-01    0.367E-02
DAV:   2    -0.177367311938E+03   -0.39213E-04   -0.65332E-04  3500   0.109E-01    0.242E-02
DAV:   3    -0.177367307351E+03    0.45869E-05   -0.21933E-05  3697   0.241E-02    0.145E-02
DAV:   4    -0.177367309448E+03   -0.20966E-05   -0.16674E-05  3564   0.225E-02    0.471E-03
DAV:   5    -0.177367309605E+03   -0.15707E-06   -0.35798E-06  3227   0.933E-03    0.293E-03
DAV:   6    -0.177367309636E+03   -0.31474E-07   -0.15378E-06  2692   0.597E-03
 133 F= -.17795982E+03 E0= -.17795982E+03  d E =-.946831E-04  mag=     0.0000
       N       E                     dE             d eps       ncg     rms          rms(c)
DAV:   1    -0.177367367946E+03   -0.58342E-04   -0.53666E-03  3242   0.338E-01    0.144E-02
DAV:   2    -0.177367373297E+03   -0.53505E-05   -0.10111E-04  3536   0.429E-02    0.952E-03
DAV:   3    -0.177367372788E+03    0.50893E-06   -0.32538E-06  3129   0.957E-03    0.567E-03
DAV:   4    -0.177367373746E+03   -0.95777E-06   -0.29928E-06  2892   0.946E-03    0.183E-03
DAV:   5    -0.177367373724E+03    0.21755E-07   -0.74607E-07  2234   0.466E-03    0.125E-03
DAV:   6    -0.177367373851E+03   -0.12688E-06   -0.56463E-07  2219   0.376E-03
 134 F= -.17795982E+03 E0= -.17795982E+03  d E =-.996666E-04  mag=    -0.0000
       N       E                     dE             d eps       ncg     rms          rms(c)
DAV:   1    -0.177367427241E+03   -0.53517E-04   -0.34436E-03  3297   0.271E-01    0.120E-02
DAV:   2    -0.177367429615E+03   -0.23743E-05   -0.68068E-05  3808   0.356E-02    0.757E-03
DAV:   3    -0.177367429227E+03    0.38826E-06   -0.27188E-06  2949   0.875E-03    0.432E-03
DAV:   4    -0.177367429848E+03   -0.62067E-06   -0.20433E-06  2429   0.795E-03    0.123E-03
DAV:   5    -0.177367429870E+03   -0.22032E-07   -0.77215E-07  2362   0.466E-03    0.858E-04
DAV:   6    -0.177367430158E+03   -0.28857E-06   -0.79133E-07  2370   0.432E-03
 135 F= -.17795985E+03 E0= -.17795985E+03  d E =-.331800E-04  mag=     0.0000
       N       E                     dE             d eps       ncg     rms          rms(c)
DAV:   1    -0.177367470829E+03   -0.40959E-04   -0.57756E-03  3292   0.351E-01    0.156E-02
DAV:   2    -0.177367475024E+03   -0.41955E-05   -0.11411E-04  3798   0.461E-02    0.981E-03
DAV:   3    -0.177367474287E+03    0.73683E-06   -0.48931E-06  3650   0.113E-02    0.558E-03
DAV:   4    -0.177367475026E+03   -0.73828E-06   -0.26550E-06  2713   0.909E-03    0.174E-03
DAV:   5    -0.177367475063E+03   -0.37660E-07   -0.84658E-07  2322   0.510E-03    0.102E-03
DAV:   6    -0.177367475349E+03   -0.28608E-06   -0.88916E-07  2340   0.469E-03
 136 F= -.17795987E+03 E0= -.17795987E+03  d E =-.484223E-04  mag=     0.0000
       N       E                     dE             d eps       ncg     rms          rms(c)
DAV:   1    -0.177367505705E+03   -0.30642E-04   -0.16508E-03  3302   0.187E-01    0.766E-03
DAV:   2    -0.177367507304E+03   -0.15988E-05   -0.31134E-05  3556   0.240E-02    0.521E-03
DAV:   3    -0.177367507228E+03    0.75794E-07   -0.11159E-06  2160   0.615E-03    0.293E-03
DAV:   4    -0.177367507790E+03   -0.56252E-06   -0.11707E-06  2302   0.589E-03    0.867E-04
DAV:   5    -0.177367507819E+03   -0.28867E-07   -0.64551E-07  2372   0.406E-03    0.642E-04
DAV:   6    -0.177367508156E+03   -0.33702E-06   -0.85015E-07  2365   0.424E-03
 137 F= -.17795989E+03 E0= -.17795989E+03  d E =-.234798E-04  mag=     0.0000
       N       E                     dE             d eps       ncg     rms          rms(c)
DAV:   1    -0.177367545187E+03   -0.37368E-04   -0.92417E-03  3237   0.443E-01    0.182E-02
DAV:   2    -0.177367555253E+03   -0.10065E-04   -0.17439E-04  3532   0.567E-02    0.123E-02
DAV:   3    -0.177367554230E+03    0.10224E-05   -0.69462E-06  3696   0.138E-02    0.696E-03
DAV:   4    -0.177367555418E+03   -0.11878E-05   -0.35653E-06  2882   0.105E-02    0.233E-03
DAV:   5    -0.177367555646E+03   -0.22802E-06   -0.92079E-07  2362   0.529E-03    0.124E-03
DAV:   6    -0.177367555917E+03   -0.27067E-06   -0.93813E-07  2405   0.490E-03
 138 F= -.17795992E+03 E0= -.17795992E+03  d E =-.491725E-04  mag=    -0.0000
       N       E                     dE             d eps       ncg     rms          rms(c)
DAV:   1    -0.177367559526E+03   -0.38803E-05   -0.24847E-04  3352   0.728E-02    0.296E-03
DAV:   2    -0.177367559725E+03   -0.19863E-06   -0.46330E-06  3202   0.952E-03    0.201E-03
DAV:   3    -0.177367559762E+03   -0.36978E-07   -0.24818E-07  2015   0.283E-03    0.111E-03
DAV:   4    -0.177367559947E+03   -0.18547E-06   -0.28672E-07  2131   0.283E-03    0.373E-04
DAV:   5    -0.177367559998E+03   -0.50633E-07   -0.37394E-07  2342   0.281E-03    0.314E-04
DAV:   6    -0.177367559977E+03    0.20946E-07   -0.31982E-07  2332   0.240E-03
 139 F= -.17795992E+03 E0= -.17795992E+03  d E =-.496262E-04  mag=     0.0000
       N       E                     dE             d eps       ncg     rms          rms(c)
DAV:   1    -0.177367591362E+03   -0.31364E-04   -0.12087E-03  3272   0.160E-01    0.669E-03
DAV:   2    -0.177367592286E+03   -0.92419E-06   -0.22462E-05  3620   0.205E-02    0.430E-03
DAV:   3    -0.177367592281E+03    0.55861E-08   -0.72330E-07  2010   0.455E-03    0.246E-03
DAV:   4    -0.177367592688E+03   -0.40721E-06   -0.51964E-07  1990   0.398E-03    0.637E-04
DAV:   5    -0.177367592717E+03   -0.28909E-07   -0.17181E-07  2010   0.212E-03    0.473E-04
DAV:   6    -0.177367592756E+03   -0.38812E-07   -0.13057E-07  2010   0.196E-03
 140 F= -.17795994E+03 E0= -.17795994E+03  d E =-.176896E-04  mag=     0.0000
       N       E                     dE             d eps       ncg     rms          rms(c)
DAV:   1    -0.177367655398E+03   -0.62681E-04   -0.10876E-02  3172   0.481E-01    0.201E-02
DAV:   2    -0.177367666077E+03   -0.10679E-04   -0.20217E-04  3587   0.614E-02    0.129E-02
DAV:   3    -0.177367665394E+03    0.68330E-06   -0.76367E-06  3696   0.135E-02    0.734E-03
DAV:   4    -0.177367666883E+03   -0.14891E-05   -0.29390E-06  2866   0.937E-03    0.214E-03
DAV:   5    -0.177367667128E+03   -0.24487E-06   -0.61411E-07  2014   0.453E-03    0.111E-03
DAV:   6    -0.177367667253E+03   -0.12547E-06   -0.56373E-07  2028   0.383E-03
 141 F= -.17795997E+03 E0= -.17795997E+03  d E =-.469372E-04  mag=    -0.0000
