AA                                      
1.0
        9.4580287933         0.0000000000         0.0000000000
       -4.7338134682         8.1918756588         0.0000000000
        1.3735747239         0.9006215583        19.9971953096
    C    H    F
   19    1    3
Cartesian
    -3.018430246         8.378918901         6.438002640
     9.026023451         1.427587562         6.471530915
     4.294098800         7.141592295         6.478025718
     3.577404914         8.380669324         6.474635285
     5.724652103         7.140649563         6.474201424
     0.999821387         1.427544985         6.440500320
    -1.622291841         8.372810750         6.408029284
     8.330266083         2.639354592         6.487807256
     3.592725310         5.934558126         6.459578879
     2.180794263         8.373509648         6.451735412
     6.426259009         5.931998407         6.486960393
     1.696042886         2.638335967         6.418842434
    -0.390513191         8.360747862         6.400394999
     7.718239976         3.708996395         6.498336132
     2.968994894         4.871286090         6.425079185
     0.948466353         8.362412937         6.418317391
     7.047622298         4.867483985         6.494672748
     2.299249771         3.712003707         6.412146791
     4.818471003         2.797950282        9.460117905
     5.029710005         2.941967409        11.247104853
     4.761678207         3.795367961        8.605637082
     3.875744293         2.254584575        9.027624081
     5.657847441         2.234104085        8.647572605
