unknown system                          
           1
     9.458029    0.000000    0.000000
    -4.733813    8.191876    0.000000
     1.373575    0.900622   19.997195
   C    H    F 
    19     1     3
unknown system                          
           1
     9.458029    0.000000    0.000000
    -4.733813    8.191876    0.000000
     1.373575    0.900622   19.997195
   C    H    F 
    19     1     3
Direct configuration=     1
   0.12832488  0.98743784  0.32194528
   0.97673994  0.13868944  0.32362193
   0.82548159  0.83617467  0.32394671
   0.82544446  0.98745012  0.32377717
   0.97671509  0.83608061  0.32375547
   0.12843552  0.13885485  0.32207018
   0.27586594  0.98685700  0.32044640
   0.97705090  0.28652298  0.32443586
   0.67776251  0.68893081  0.32302424
   0.67757231  0.98670202  0.32263201
   0.97692221  0.68846780  0.32439351
   0.27624103  0.28677779  0.32098714
   0.40544167  0.98542643  0.32006463
   0.97758877  0.41703859  0.32496238
   0.54719698  0.55932456  0.32129902
   0.54693460  0.98553115  0.32096088
   0.97750217  0.55847782  0.32477918
   0.40568429  0.41787955  0.32065231
   0.58567260  0.28954190  0.47307224
   0.59891099  0.29729786  0.56243412
   0.64916501  0.41599661  0.43034220
   0.45713032  0.22558984  0.45144451
   0.64810715  0.22517919  0.43243927
unknown system                          
           1
     9.686584    0.044791   -0.031795
    -4.809412    8.313845   -0.002890
     1.343809    0.877099   19.181225
   C    H    F 
    19     1     3
Direct configuration=     2
   0.12853335  0.98771272  0.32200330
   0.97693123  0.13911881  0.32362146
   0.82515522  0.83585573  0.32388009
   0.82513542  0.98734605  0.32370297
   0.97659702  0.83565372  0.32369355
   0.12851817  0.13875814  0.32211568
   0.27583353  0.98691669  0.32048099
   0.97706314  0.28654835  0.32437158
   0.67710523  0.68833076  0.32294163
   0.67719005  0.98672655  0.32259992
   0.97693997  0.68834937  0.32434679
   0.27585739  0.28647550  0.32099019
   0.40575752  0.98546334  0.32007876
   0.97767759  0.41692705  0.32488356
   0.54768050  0.55997408  0.32128987
   0.54720971  0.98535361  0.32088981
   0.97754789  0.55879499  0.32476311
   0.40622036  0.41833339  0.32065330
   0.62815144  0.31270879  0.47822619
   0.59846180  0.29702750  0.55243462
   0.67950079  0.48164346  0.43147945
   0.35315785  0.17419347  0.45434669
   0.67966579  0.18801739  0.43369315
unknown system                          
           1
     9.645750    0.036908   -0.026199
    -4.795802    8.291851   -0.002381
     1.348959    0.881181   19.323541
   C    H    F 
    19     1     3
Direct configuration=     3
   0.12849767  0.98766530  0.32199259
   0.97689844  0.13904459  0.32362148
   0.82521109  0.83591067  0.32389241
   0.82518830  0.98736377  0.32371666
   0.97661723  0.83572757  0.32370495
   0.12850406  0.13877499  0.32210731
   0.27583909  0.98690632  0.32047466
   0.97706100  0.28654395  0.32438336
   0.67721777  0.68843410  0.32295698
   0.67725548  0.98672193  0.32260591
   0.97693691  0.68836989  0.32435535
   0.27592310  0.28652752  0.32098975
   0.40570345  0.98545725  0.32007608
   0.97766235  0.41694644  0.32489799
   0.54759765  0.55986198  0.32129139
   0.54716257  0.98538461  0.32090277
   0.97754003  0.55874006  0.32476604
   0.40612854  0.41825525  0.32065296
   0.62087974  0.30873607  0.47726851
   0.59853233  0.29707104  0.55426823
   0.67430192  0.47029653  0.43126060
   0.37096575  0.18300193  0.45384540
   0.67426650  0.19448769  0.43345527
unknown system                          
           1
     9.609255    0.029820   -0.021167
    -4.783675    8.272267   -0.001924
     1.353622    0.884873   19.451989
   C    H    F 
    19     1     3
Direct configuration=     4
   0.12846542  0.98762250  0.32198304
   0.97686881  0.13897761  0.32362151
   0.82526158  0.83596027  0.32390339
   0.82523609  0.98737980  0.32372888
   0.97663550  0.83579419  0.32371512
   0.12849130  0.13879018  0.32209985
   0.27584412  0.98689698  0.32046900
   0.97705907  0.28653998  0.32439389
   0.67731948  0.68852740  0.32297066
   0.67731462  0.98671782  0.32261125
   0.97693415  0.68838841  0.32436300
   0.27598249  0.28657450  0.32098933
   0.40565458  0.98545171  0.32007370
   0.97764857  0.41696392  0.32491088
   0.54752278  0.55976080  0.32129278
   0.54711998  0.98541255  0.32091435
   0.97753292  0.55869052  0.32476865
   0.40604555  0.41818470  0.32065267
   0.61430712  0.30514636  0.47641532
   0.59859712  0.29711085  0.55590551
   0.66960379  0.46005766  0.43106677
   0.38706010  0.19096193  0.45339304
   0.66938581  0.20031884  0.43324407
unknown system                          
           1
     9.533169    0.014908   -0.010582
    -4.758510    8.231666   -0.000962
     1.363533    0.892704   19.723656
   C    H    F 
    19     1     3
Direct configuration=     5
   0.12839725  0.98753214  0.32196310
   0.97680620  0.13883627  0.32362159
   0.82536831  0.83606501  0.32392632
   0.82533712  0.98741371  0.32375439
   0.97667411  0.83593478  0.32373637
   0.12846431  0.13882218  0.32208425
   0.27585475  0.98687727  0.32045717
   0.97705502  0.28653161  0.32441588
   0.67753445  0.68872442  0.32299919
   0.67743961  0.98670925  0.32262237
   0.97692832  0.68842746  0.32437899
   0.27610800  0.28667370  0.32098843
   0.40555128  0.98543993  0.32006875
   0.97761947  0.41700078  0.32493783
   0.54736456  0.55954723  0.32129571
   0.54702997  0.98547139  0.32093858
   0.97751792  0.55858599  0.32477413
   0.40587018  0.41803571  0.32065213
   0.60041556  0.29756141  0.47463532
   0.59873603  0.29719583  0.55932838
   0.65967584  0.43845014  0.43066456
   0.42107336  0.20778267  0.45243833
   0.65906934  0.21261056  0.43280488
unknown system                          
           1
     9.495483    0.007454   -0.005291
    -4.746104    8.211671   -0.000481
     1.368537    0.896652   19.860188
   C    H    F 
    19     1     3
Direct configuration=     6
   0.12836286  0.98748667  0.32195329
   0.97677463  0.13876520  0.32362165
   0.82542215  0.83611774  0.32393760
   0.82538810  0.98743085  0.32376694
   0.97669359  0.83600546  0.32374684
   0.12845069  0.13883823  0.32207657
   0.27586010  0.98686737  0.32045133
   0.97705298  0.28652740  0.32442673
   0.67764290  0.68882362  0.32301319
   0.67750267  0.98670507  0.32262782
   0.97692538  0.68844708  0.32438688
   0.27617131  0.28672367  0.32098795
   0.40549917  0.98543391  0.32006634
   0.97760480  0.41701928  0.32495112
   0.54728477  0.55943977  0.32129721
   0.54698457  0.98550089  0.32095056
   0.97751036  0.55853346  0.32477683
   0.40578172  0.41796069  0.32065191
   0.59340697  0.29373686  0.47376145
   0.59880816  0.29723959  0.56101621
   0.65466885  0.42758373  0.43046939
   0.43823076  0.21626582  0.45195810
   0.65386348  0.21877709  0.43259075
unknown system                          
           1
     9.519575    0.012224   -0.008677
    -4.754030    8.224445   -0.000789
     1.365331    0.894123   19.772753
   C    H    F 
    19     1     3
Direct configuration=     7
   0.12838497  0.98751587  0.32195952
   0.97679492  0.13881082  0.32362160
   0.82538753  0.83608388  0.32393044
   0.82535532  0.98741982  0.32375897
   0.97668107  0.83596010  0.32374019
   0.12845945  0.13882794  0.32208145
   0.27585666  0.98687372  0.32045504
   0.97705429  0.28653010  0.32441983
   0.67757318  0.68875991  0.32300431
   0.67746213  0.98670771  0.32262436
   0.97692727  0.68843450  0.32438186
   0.27613062  0.28669158  0.32098827
   0.40553267  0.98543780  0.32006786
   0.97761423  0.41700741  0.32494267
   0.54733606  0.55950876  0.32129624
   0.54701375  0.98548199  0.32094294
   0.97751522  0.55856717  0.32477511
   0.40583858  0.41800888  0.32065203
   0.59791268  0.29619488  0.47431563
   0.59876115  0.29721118  0.55994343
   0.65788715  0.43455823  0.43059243
   0.42720150  0.21081319  0.45226638
   0.65721057  0.21482402  0.43272606
unknown system                          
           1
     9.514960    0.011312   -0.008029
    -4.752511    8.221995   -0.000730
     1.365943    0.894606   19.789461
   C    H    F 
    19     1     3
Direct configuration=     8
   0.12838075  0.98751029  0.32195832
   0.97679105  0.13880211  0.32362161
   0.82539414  0.83609034  0.32393182
   0.82536157  0.98742193  0.32376050
   0.97668346  0.83596876  0.32374147
   0.12845778  0.13882991  0.32208051
   0.27585732  0.98687251  0.32045433
   0.97705404  0.28652958  0.32442116
   0.67758648  0.68877206  0.32300602
   0.67746986  0.98670720  0.32262503
   0.97692691  0.68843690  0.32438283
   0.27613838  0.28669770  0.32098821
   0.40552628  0.98543706  0.32006757
   0.97761243  0.41700968  0.32494429
   0.54732628  0.55949559  0.32129643
   0.54700818  0.98548560  0.32094440
   0.97751429  0.55856073  0.32477544
   0.40582774  0.41799968  0.32065200
   0.59705339  0.29572602  0.47420902
   0.59877003  0.29721657  0.56014952
   0.65727331  0.43322673  0.43056867
   0.42930502  0.21185320  0.45220753
   0.65657228  0.21557929  0.43269997
unknown system                          
           1
     9.551108   -0.019727   -0.037064
    -4.797484    8.304724   -0.003478
     1.307670    0.855818   19.549206
   C    H    F 
    19     1     3
Direct configuration=     9
   0.12843816  0.98717803  0.32201643
   0.97681914  0.13865854  0.32360038
   0.82517181  0.83553655  0.32385850
   0.82516287  0.98769157  0.32368352
   0.97662727  0.83606782  0.32366664
   0.12844322  0.13910276  0.32212888
   0.27748324  0.98679909  0.32047841
   0.97711215  0.28716413  0.32436353
   0.67712044  0.68830493  0.32290330
   0.67674009  0.98677680  0.32256131
   0.97694270  0.68800611  0.32433505
   0.27792382  0.28872247  0.32096587
   0.40453374  0.98544202  0.32007807
   0.97770619  0.41682445  0.32484324
   0.54733712  0.55966737  0.32129295
   0.54737483  0.98536566  0.32088947
   0.97758388  0.55872577  0.32474492
   0.40454154  0.41668656  0.32064185
   0.58981164  0.29194825  0.46726167
   0.59970369  0.29770432  0.55005629
   0.66187925  0.44297864  0.43659733
   0.42635099  0.21041895  0.45783547
   0.66108318  0.21045867  0.43868356
unknown system                          
           1
     9.553205   -0.021505   -0.038728
    -4.800074    8.309487   -0.003635
     1.304335    0.853598   19.535494
   C    H    F 
    19     1     3
Direct configuration=    10
   0.12844147  0.98715920  0.32201980
   0.97682075  0.13865040  0.32359915
   0.82515908  0.83550508  0.32385422
   0.82515148  0.98770681  0.32367904
   0.97662403  0.83607342  0.32366229
   0.12844240  0.13911825  0.32213169
   0.27757620  0.98679526  0.32047994
   0.97711544  0.28720013  0.32436020
   0.67709377  0.68827831  0.32289730
   0.67669834  0.98678059  0.32255755
   0.97694359  0.68798167  0.32433227
   0.27802584  0.28883768  0.32096474
   0.40447700  0.98544210  0.32007859
   0.97771151  0.41681395  0.32483738
   0.54733774  0.55967711  0.32129275
   0.54739577  0.98535892  0.32088632
   0.97758785  0.55873514  0.32474315
   0.40446803  0.41661181  0.32064114
   0.58939528  0.29173112  0.46685810
   0.59975351  0.29773020  0.54947099
   0.66214449  0.44353391  0.43694745
   0.42618412  0.21033809  0.45816161
   0.66134325  0.21017032  0.43903094
unknown system                          
           1
     9.565986   -0.014678   -0.054596
    -4.800552    8.313003   -0.005320
     1.274009    0.832386   19.490151
   C    H    F 
    19     1     3
Direct configuration=    11
   0.12929301  0.98808678  0.32205702
   0.97684023  0.13926718  0.32357502
   0.82505594  0.83635978  0.32376092
   0.82495296  0.98685747  0.32360065
   0.97681178  0.83560656  0.32359600
   0.12953028  0.13925949  0.32216446
   0.27313348  0.98687695  0.32055821
   0.97717853  0.28742703  0.32429596
   0.67668278  0.68800305  0.32278976
   0.67780618  0.98674012  0.32249881
   0.97697409  0.68723219  0.32427437
   0.27226342  0.28308294  0.32099110
   0.40976279  0.98540640  0.32008573
   0.97778170  0.41717739  0.32472585
   0.54591039  0.55842840  0.32127134
   0.54487111  0.98520323  0.32080226
   0.97766677  0.55890650  0.32469674
   0.41070217  0.42288586  0.32063784
   0.58556282  0.28965543  0.46761247
   0.60025145  0.29800450  0.53828450
   0.66283450  0.44517690  0.44108517
   0.42810220  0.21129018  0.46106489
   0.66192238  0.20929513  0.44305757
unknown system                          
           1
     9.561153   -0.017256   -0.048603
    -4.800368    8.311669   -0.004683
     1.285461    0.840396   19.507262
   C    H    F 
    19     1     3
Direct configuration=    12
   0.12897204  0.98773689  0.32204264
   0.97683296  0.13903438  0.32358413
   0.82509502  0.83603719  0.32379624
   0.82502785  0.98717809  0.32363041
   0.97674108  0.83578291  0.32362105
   0.12912018  0.13920651  0.32215172
   0.27480798  0.98684452  0.32052994
   0.97715487  0.28734146  0.32432025
   0.67683784  0.68810691  0.32283060
   0.67738868  0.98675583  0.32252071
   0.97696263  0.68751517  0.32429630
   0.27443505  0.28525330  0.32098307
   0.40777037  0.98542168  0.32008141
   0.97775544  0.41704031  0.32476804
   0.54644836  0.55889931  0.32127992
   0.54582286  0.98526121  0.32083486
   0.97763710  0.55884188  0.32471428
   0.40835273  0.42051961  0.32063698
   0.58700612  0.29043701  0.46732815
   0.60008079  0.29791095  0.54251882
   0.66256823  0.44455329  0.43951863
   0.42737486  0.21092889  0.45996528
   0.66169790  0.20962217  0.44153320
unknown system                          
           1
     9.558779   -0.013179   -0.054637
    -4.795644    8.304733   -0.005336
     1.273252    0.831851   19.522519
   C    H    F 
    19     1     3
Direct configuration=    13
   0.12908445  0.98794873  0.32206223
   0.97680516  0.13937504  0.32357151
   0.82490639  0.83610055  0.32374415
   0.82491862  0.98695675  0.32358830
   0.97678235  0.83544312  0.32359050
   0.12920644  0.13906165  0.32216973
   0.27479990  0.98689286  0.32056302
   0.97718148  0.28733335  0.32428711
   0.67687215  0.68823723  0.32277670
   0.67743138  0.98669546  0.32248094
   0.97697965  0.68754410  0.32426500
   0.27439865  0.28520605  0.32098967
   0.40760751  0.98542674  0.32009128
   0.97778628  0.41732125  0.32471228
   0.54655386  0.55909143  0.32127101
   0.54599652  0.98519215  0.32080521
   0.97767882  0.55858386  0.32468910
   0.40823590  0.42040239  0.32063964
   0.58633005  0.29004635  0.46914811
   0.60021928  0.29798964  0.53667540
   0.66237364  0.44436570  0.44124543
   0.42828911  0.21136998  0.46092881
   0.66145336  0.20964507  0.44319151
unknown system                          
           1
     9.551705   -0.000945   -0.072739
    -4.781496    8.283969   -0.007294
     1.236630    0.806219   19.568393
   C    H    F 
    19     1     3
Direct configuration=    14
   0.12942170  0.98858470  0.32212107
   0.97672158  0.14039788  0.32353370
   0.82434024  0.83629093  0.32358784
   0.82459078  0.98629224  0.32346194
   0.97690606  0.83442273  0.32349890
   0.12946535  0.13862662  0.32222378
   0.27477585  0.98703811  0.32066218
   0.97726113  0.28730884  0.32418780
   0.67697472  0.68862827  0.32261515
   0.67755926  0.98651402  0.32236175
   0.97703050  0.68763084  0.32417119
   0.27428950  0.28506426  0.32100942
   0.40711900  0.98544224  0.32012072
   0.97787841  0.41816453  0.32454521
   0.54687025  0.55966807  0.32124442
   0.54651731  0.98498444  0.32071648
   0.97780388  0.55780901  0.32461363
   0.40788549  0.42005062  0.32064751
   0.58431263  0.28888051  0.47460309
   0.60060075  0.29820624  0.51915885
   0.66179998  0.44380850  0.44642162
   0.43103722  0.21269612  0.46381805
   0.66072939  0.20971973  0.44816234
unknown system                          
           1
     9.557033   -0.010171   -0.059087
    -4.792163    8.299623   -0.005818
     1.264248    0.825549   19.533782
   C    H    F 
    19     1     3
Direct configuration=    15
   0.12916725  0.98810412  0.32207651
   0.97678495  0.13962455  0.32356213
   0.82476787  0.83614672  0.32370583
   0.82483842  0.98679458  0.32355730
   0.97681299  0.83519458  0.32356781
   0.12926980  0.13895570  0.32218296
   0.27479358  0.98692801  0.32058758
   0.97720150  0.28732771  0.32426247
   0.67689816  0.68833315  0.32273660
   0.67746332  0.98665165  0.32245136
   0.97699258  0.68756555  0.32424174
   0.27437169  0.28517128  0.32099465
   0.40748723  0.98542987  0.32009891
   0.97780983  0.41752749  0.32467079
   0.54663190  0.55923254  0.32126417
   0.54612496  0.98514232  0.32078289
   0.97770977  0.55839518  0.32467039
   0.40814962  0.42031614  0.32064186
   0.58580981  0.28974591  0.47050012
   0.60038972  0.29808680  0.53233844
   0.66220982  0.44421613  0.44252737
   0.42895262  0.21168949  0.46164210
   0.66125358  0.20964997  0.44442266
unknown system                          
           1
     9.553515   -0.004087   -0.068090
    -4.785127    8.289296   -0.006791
     1.246036    0.812802   19.556595
   C    H    F 
    19     1     3
Direct configuration=    16
   0.12933499  0.98842056  0.32210580
   0.97674333  0.14013354  0.32354334
   0.82448620  0.83624150  0.32362808
   0.82467531  0.98646391  0.32349445
   0.97687447  0.83468675  0.32352228
   0.12939861  0.13873919  0.32220985
   0.27478169  0.98700034  0.32063686
   0.97724104  0.28731546  0.32421311
   0.67694904  0.68852765  0.32265632
   0.67752683  0.98656128  0.32239213
   0.97701780  0.68760867  0.32419512
   0.27431743  0.28510075  0.32100445
   0.40724432  0.98543769  0.32011349
   0.97785550  0.41794704  0.32458777
   0.54678920  0.55951942  0.32125099
   0.54638389  0.98503882  0.32073885
   0.97777193  0.55800954  0.32463288
   0.40797537  0.42014117  0.32064573
   0.58481045  0.28916836  0.47321120
   0.60056698  0.29818739  0.52363214
   0.66192823  0.44394108  0.44510005
   0.43032127  0.21235006  0.46307848
   0.66089708  0.20968929  0.44689327
unknown system                          
           1
     9.555542   -0.007597   -0.062896
    -4.789185    8.295252   -0.006230
     1.256543    0.820156   19.543428
   C    H    F 
    19     1     3
Direct configuration=    17
   0.12923820  0.98823781  0.32208887
   0.97676741  0.13983952  0.32355417
   0.82464883  0.83618670  0.32367296
   0.82476949  0.98665491  0.32353072
   0.97683904  0.83498017  0.32354852
   0.12932424  0.13886429  0.32219433
   0.27478847  0.98695851  0.32060846
   0.97721831  0.28732260  0.32424155
   0.67691983  0.68841539  0.32270257
   0.67749028  0.98661357  0.32242625
   0.97700333  0.68758382  0.32422197
   0.27434871  0.28514146  0.32099882
   0.40738443  0.98543305  0.32010515
   0.97782932  0.41770479  0.32463559
   0.54669850  0.55935378  0.32125853
   0.54623458  0.98509877  0.32076417
   0.97773610  0.55823237  0.32465449
   0.40807588  0.42024216  0.32064355
   0.58538242  0.28949895  0.47164916
   0.60047922  0.29813766  0.52864931
   0.66208637  0.44409738  0.44361756
   0.42952936  0.21196772  0.46225035
   0.66109863  0.20966406  0.44546961
unknown system                          
           1
     9.554927   -0.006534   -0.064468
    -4.787956    8.293448   -0.006400
     1.253361    0.817929   19.547414
   C    H    F 
    19     1     3
Direct configuration=    18
   0.12926750  0.98829312  0.32209399
   0.97676013  0.13992849  0.32355088
   0.82459960  0.83620327  0.32365937
   0.82474099  0.98659711  0.32351974
   0.97684978  0.83489139  0.32354057
   0.12934675  0.13882644  0.32219903
   0.27478640  0.98697116  0.32061707
   0.97722521  0.28732045  0.32423293
   0.67692870  0.68844938  0.32268855
   0.67750137  0.98659776  0.32241591
   0.97700773  0.68759135  0.32421383
   0.27433923  0.28512914  0.32100053
   0.40734200  0.98543443  0.32010769
   0.97783728  0.41777811  0.32462110
   0.54672597  0.55940392  0.32125624
   0.54627980  0.98508066  0.32075648
   0.97774696  0.55816496  0.32464794
   0.40804544  0.42021159  0.32064422
   0.58520842  0.28939839  0.47212252
   0.60050833  0.29815417  0.52712903
   0.66203773  0.44404964  0.44406679
   0.42976876  0.21208328  0.46250122
   0.66103688  0.20967126  0.44590102
unknown system                          
           1
     9.540321   -0.006497   -0.061671
    -4.780613    8.279960   -0.006110
     1.257594    0.820883   19.609715
   C    H    F 
    19     1     3
Direct configuration=    19
   0.12875009  0.98766575  0.32210012
   0.97673185  0.13958556  0.32354442
   0.82471280  0.83568841  0.32364132
   0.82490513  0.98716204  0.32350842
   0.97674483  0.83513215  0.32353871
   0.12871292  0.13881271  0.32220345
   0.27709194  0.98699984  0.32061798
   0.97721525  0.28755503  0.32422615
   0.67718551  0.68876500  0.32268358
   0.67706169  0.98653923  0.32239938
   0.97701777  0.68763634  0.32420748
   0.27737631  0.28813162  0.32099891
   0.40480137  0.98546128  0.32011612
   0.97783376  0.41726582  0.32461510
   0.54724462  0.55992385  0.32125819
   0.54731291  0.98508581  0.32076487
   0.97774622  0.55844218  0.32464048
   0.40487953  0.41702206  0.32065084
   0.58714683  0.29042660  0.47261217
   0.60060217  0.29821636  0.52739361
   0.66162690  0.44345347  0.44391912
   0.42853893  0.21145459  0.46211536
   0.66065164  0.20980377  0.44573086
unknown system                          
           1
     9.542387   -0.006502   -0.062067
    -4.781651    8.281867   -0.006151
     1.256994    0.820464   19.600886
   C    H    F 
    19     1     3
Direct configuration=    20
   0.12882348  0.98775474  0.32209924
   0.97673586  0.13963420  0.32354533
   0.82469675  0.83576144  0.32364387
   0.82488185  0.98708191  0.32351002
   0.97675971  0.83509800  0.32353897
   0.12880282  0.13881466  0.32220281
   0.27676494  0.98699577  0.32061790
   0.97721666  0.28752176  0.32422711
   0.67714909  0.68872023  0.32268429
   0.67712405  0.98654754  0.32240170
   0.97701635  0.68762996  0.32420838
   0.27694552  0.28770573  0.32099920
   0.40516172  0.98545747  0.32011488
   0.97783426  0.41733849  0.32461595
   0.54717106  0.55985010  0.32125793
   0.54716638  0.98508508  0.32076371
   0.97774632  0.55840286  0.32464154
   0.40532858  0.41747448  0.32064984
   0.58687189  0.29028075  0.47254309
   0.60058886  0.29820754  0.52735626
   0.66168517  0.44353803  0.44393996
   0.42871336  0.21154377  0.46216981
   0.66070628  0.20978497  0.44575487
unknown system                          
           1
     9.530421   -0.004412   -0.059870
    -4.773851    8.267404   -0.005909
     1.260482    0.822845   19.657762
   C    H    F 
    19     1     3
Direct configuration=    21
   0.12865625  0.98747919  0.32210302
   0.97675245  0.13936729  0.32353704
   0.82499599  0.83576213  0.32362504
   0.82510488  0.98735237  0.32349911
   0.97672572  0.83535440  0.32353630
   0.12867278  0.13897923  0.32220332
   0.27664964  0.98703276  0.32063019
   0.97720755  0.28744084  0.32421834
   0.67707157  0.68868723  0.32267519
   0.67713296  0.98651369  0.32239014
   0.97702595  0.68768705  0.32420044
   0.27684168  0.28755248  0.32101056
   0.40544136  0.98545512  0.32011977
   0.97783481  0.41725764  0.32460773
   0.54700499  0.55968415  0.32125505
   0.54693556  0.98508384  0.32076196
   0.97774899  0.55850414  0.32463177
   0.40552617  0.41767864  0.32065562
   0.58806161  0.29092673  0.47292338
   0.60070489  0.29828433  0.52751501
   0.66133751  0.44300583  0.44385513
   0.42808416  0.21121468  0.46188473
   0.66037349  0.20992569  0.44564781
unknown system                          
           1
     9.508930   -0.000640   -0.055906
    -4.759825    8.241393   -0.005471
     1.266790    0.827150   19.760606
   C    H    F 
    19     1     3
Direct configuration=    22
   0.12835412  0.98698117  0.32210987
   0.97678240  0.13888480  0.32352213
   0.82553658  0.83576325  0.32359111
   0.82550785  0.98784118  0.32347942
   0.97666433  0.83581790  0.32353150
   0.12843787  0.13927679  0.32220424
   0.27644135  0.98709969  0.32065234
   0.97719107  0.28729456  0.32420256
   0.67693152  0.68862762  0.32265884
   0.67714904  0.98645251  0.32236933
   0.97704329  0.68779025  0.32418615
   0.27665406  0.28727550  0.32103101
   0.40594657  0.98545073  0.32012850
   0.97783581  0.41711149  0.32459294
   0.54670497  0.55938425  0.32124992
   0.54651856  0.98508171  0.32075886
   0.97775382  0.55868721  0.32461420
   0.40588315  0.41804760  0.32066597
   0.59021100  0.29209391  0.47360739
   0.60091451  0.29842309  0.52780062
   0.66070937  0.44204395  0.44370258
   0.42694743  0.21062007  0.46137193
   0.65977230  0.21018021  0.44545524
unknown system                          
           1
     9.490595   -0.000612   -0.054219
    -4.750625    8.225491   -0.005305
     1.268307    0.828296   19.837359
   C    H    F 
    19     1     3
Direct configuration=    23
   0.12838992  0.98716236  0.32211528
   0.97683040  0.13895348  0.32351016
   0.82550681  0.83585795  0.32356160
   0.82551469  0.98772455  0.32345888
   0.97669001  0.83577848  0.32352279
   0.12847780  0.13917596  0.32220831
   0.27648355  0.98708176  0.32067110
   0.97717385  0.28679747  0.32418506
   0.67703700  0.68872464  0.32264557
   0.67709818  0.98645993  0.32235103
   0.97703744  0.68829768  0.32417274
   0.27644497  0.28706414  0.32104774
   0.40559802  0.98545343  0.32013506
   0.97784110  0.41738281  0.32458176
   0.54677030  0.55944640  0.32124619
   0.54684466  0.98508460  0.32075932
   0.97775809  0.55840334  0.32459854
   0.40585352  0.41802954  0.32067332
   0.59000130  0.29197831  0.47363222
   0.60114724  0.29857414  0.52815698
   0.66054092  0.44175685  0.44364814
   0.42727420  0.21076481  0.46121927
   0.65957699  0.21027682  0.44538558
unknown system                          
           1
     9.480398   -0.000597   -0.053278
    -4.745507    8.216648   -0.005212
     1.269158    0.828937   19.880240
   C    H    F 
    19     1     3
Direct configuration=    24
   0.12840993  0.98726364  0.32211829
   0.97685722  0.13899187  0.32350350
   0.82549016  0.83591087  0.32354521
   0.82551851  0.98765936  0.32344746
   0.97670436  0.83575645  0.32351795
   0.12850011  0.13911960  0.32221057
   0.27650713  0.98707175  0.32068153
   0.97716422  0.28651963  0.32417534
   0.67709595  0.68877886  0.32263819
   0.67706975  0.98646408  0.32234086
   0.97703416  0.68858130  0.32416528
   0.27632811  0.28694600  0.32105704
   0.40540321  0.98545494  0.32013872
   0.97784406  0.41753446  0.32457554
   0.54680682  0.55948114  0.32124412
   0.54702693  0.98508621  0.32075956
   0.97776047  0.55824468  0.32458984
   0.40583697  0.41801945  0.32067741
   0.58988410  0.29191370  0.47364604
   0.60127742  0.29865861  0.52835499
   0.66044675  0.44159637  0.44361789
   0.42745681  0.21084569  0.46113443
   0.65946781  0.21033080  0.44534688
unknown system                          
           1
     9.464705   -0.000363   -0.052165
    -4.737451    8.200807   -0.005140
     1.269812    0.829180   19.951610
   C    H    F 
    19     1     3
Direct configuration=    25
   0.12853603  0.98756307  0.32212573
   0.97685974  0.13900194  0.32348791
   0.82531148  0.83602499  0.32351191
   0.82541812  0.98742344  0.32342109
   0.97677922  0.83579957  0.32350644
   0.12858281  0.13888280  0.32221651
   0.27609405  0.98705099  0.32070566
   0.97714905  0.28661278  0.32415668
   0.67736270  0.68901866  0.32262163
   0.67751574  0.98649275  0.32232551
   0.97702878  0.68846534  0.32415147
   0.27623418  0.28686095  0.32107417
   0.40559788  0.98544965  0.32014527
   0.97785023  0.41710066  0.32456159
   0.54684918  0.55952168  0.32123848
   0.54679084  0.98508788  0.32075124
   0.97776184  0.55868622  0.32456848
   0.40565659  0.41785387  0.32068502
   0.58914645  0.29151673  0.47370714
   0.60152408  0.29882031  0.52859022
   0.66044964  0.44163044  0.44357959
   0.42796364  0.21107833  0.46105740
   0.65942869  0.21028640  0.44529752
unknown system                          
           1
     9.464756   -0.000364   -0.052169
    -4.737477    8.200858   -0.005140
     1.269810    0.829179   19.951378
   C    H    F 
    19     1     3
Direct configuration=    26
   0.12853562  0.98756210  0.32212570
   0.97685973  0.13900191  0.32348796
   0.82531207  0.83602462  0.32351201
   0.82541845  0.98742421  0.32342117
   0.97677897  0.83579943  0.32350648
   0.12858254  0.13888357  0.32221649
   0.27609540  0.98705105  0.32070558
   0.97714910  0.28661247  0.32415674
   0.67736183  0.68901788  0.32262169
   0.67751428  0.98649266  0.32232556
   0.97702880  0.68846572  0.32415151
   0.27623449  0.28686122  0.32107411
   0.40559724  0.98544966  0.32014525
   0.97785021  0.41710207  0.32456163
   0.54684904  0.55952155  0.32123850
   0.54679161  0.98508787  0.32075127
   0.97776183  0.55868478  0.32456855
   0.40565718  0.41785441  0.32068500
   0.58914886  0.29151802  0.47370694
   0.60152328  0.29881979  0.52858946
   0.66044963  0.44163033  0.44357972
   0.42796199  0.21107758  0.46105765
   0.65942882  0.21028655  0.44529768
unknown system                          
           1
     9.462024   -0.001079   -0.052157
    -4.736730    8.199745   -0.005155
     1.269456    0.828948   19.960725
   C    H    F 
    19     1     3
Direct configuration=    27
   0.12851029  0.98754532  0.32213190
   0.97686598  0.13891410  0.32347979
   0.82533914  0.83603121  0.32350118
   0.82544210  0.98743630  0.32340810
   0.97676436  0.83589195  0.32349927
   0.12855181  0.13886466  0.32222050
   0.27605821  0.98705385  0.32071423
   0.97714920  0.28663862  0.32414912
   0.67738662  0.68902780  0.32261268
   0.67752761  0.98650636  0.32231662
   0.97703258  0.68843757  0.32414545
   0.27617504  0.28679902  0.32108116
   0.40559446  0.98544633  0.32014799
   0.97785217  0.41715768  0.32455516
   0.54685751  0.55953008  0.32123449
   0.54682065  0.98508621  0.32074633
   0.97776150  0.55863843  0.32455848
   0.40569631  0.41789944  0.32068750
   0.58887583  0.29137268  0.47382213
   0.60158057  0.29885973  0.52847947
   0.66056344  0.44188678  0.44359967
   0.42796454  0.21106907  0.46107897
   0.65952103  0.21013624  0.44531647
unknown system                          
           1
     9.457759   -0.002196   -0.052140
    -4.735563    8.198009   -0.005178
     1.268904    0.828587   19.975325
   C    H    F 
    19     1     3
Direct configuration=    28
   0.12847072  0.98751913  0.32214158
   0.97687574  0.13877697  0.32346703
   0.82538142  0.83604150  0.32348428
   0.82547905  0.98745519  0.32338770
   0.97674152  0.83603642  0.32348802
   0.12850381  0.13883513  0.32222675
   0.27600014  0.98705820  0.32072773
   0.97714936  0.28667944  0.32413722
   0.67742534  0.68904330  0.32259862
   0.67754844  0.98652775  0.32230268
   0.97703848  0.68839362  0.32413598
   0.27608220  0.28670188  0.32109215
   0.40559012  0.98544112  0.32015226
   0.97785521  0.41724452  0.32454505
   0.54687074  0.55954342  0.32122823
   0.54686600  0.98508362  0.32073863
   0.97776098  0.55856605  0.32454276
   0.40575744  0.41796978  0.32069140
   0.58844941  0.29114569  0.47400190
   0.60167004  0.29892209  0.52830781
   0.66074121  0.44228728  0.44363081
   0.42796853  0.21105579  0.46111224
   0.65966506  0.20990154  0.44534581
unknown system                          
           1
     9.459197   -0.001820   -0.052146
    -4.735956    8.198594   -0.005170
     1.269090    0.828709   19.970401
   C    H    F 
    19     1     3
Direct configuration=    29
   0.12848407  0.98752797  0.32213832
   0.97687245  0.13882322  0.32347133
   0.82536715  0.83603803  0.32348997
   0.82546658  0.98744882  0.32339458
   0.97674923  0.83598769  0.32349181
   0.12852001  0.13884509  0.32222464
   0.27601973  0.98705674  0.32072318
   0.97714931  0.28666567  0.32414123
   0.67741228  0.68903807  0.32260336
   0.67754141  0.98652054  0.32230738
   0.97703649  0.68840844  0.32413917
   0.27611352  0.28673465  0.32108845
   0.40559158  0.98544288  0.32015082
   0.97785419  0.41721523  0.32454846
   0.54686628  0.55953892  0.32123034
   0.54685070  0.98508449  0.32074123
   0.97776115  0.55859047  0.32454806
   0.40573681  0.41794605  0.32069009
   0.58859328  0.29122227  0.47394131
   0.60163987  0.29890106  0.52836566
   0.66068123  0.44215218  0.44362031
   0.42796718  0.21106027  0.46110103
   0.65961646  0.20998070  0.44533592
unknown system                          
           1
     9.457619   -0.001923   -0.051750
    -4.735257    8.197327   -0.005158
     1.269741    0.829099   19.977019
   C    H    F 
    19     1     3
Direct configuration=    30
   0.12843620  0.98750458  0.32214693
   0.97685857  0.13881033  0.32346089
   0.82538612  0.83605027  0.32347582
   0.82548584  0.98745653  0.32337696
   0.97673825  0.83598334  0.32348182
   0.12848032  0.13881211  0.32223042
   0.27605948  0.98706063  0.32073407
   0.97715341  0.28665832  0.32413042
   0.67744694  0.68905161  0.32259034
   0.67759027  0.98654130  0.32229622
   0.97704283  0.68844609  0.32413008
   0.27620156  0.28681963  0.32109831
   0.40554758  0.98543655  0.32015501
   0.97785876  0.41719901  0.32453871
   0.54688390  0.55956021  0.32122388
   0.54682691  0.98508048  0.32073261
   0.97776197  0.55859448  0.32453347
   0.40563963  0.41785486  0.32069367
   0.58854206  0.29119370  0.47390596
   0.60171179  0.29895127  0.52825974
   0.66074028  0.44231930  0.44371544
   0.42784672  0.21098781  0.46114967
   0.65965158  0.20985704  0.44542620
unknown system                          
           1
     9.455705   -0.002049   -0.051270
    -4.734408    8.195789   -0.005143
     1.270531    0.829572   19.985053
   C    H    F 
    19     1     3
Direct configuration=    31
   0.12837809  0.98747619  0.32215738
   0.97684173  0.13879467  0.32344821
   0.82540915  0.83606514  0.32345865
   0.82550921  0.98746589  0.32335559
   0.97672491  0.83597806  0.32346970
   0.12843213  0.13877207  0.32223744
   0.27610774  0.98706535  0.32074729
   0.97715839  0.28664939  0.32411731
   0.67748902  0.68906803  0.32257454
   0.67764958  0.98656650  0.32228267
   0.97705054  0.68849179  0.32411905
   0.27630845  0.28692279  0.32111028
   0.40549416  0.98542887  0.32016009
   0.97786431  0.41717933  0.32452688
   0.54690528  0.55958606  0.32121604
   0.54679802  0.98507561  0.32072216
   0.97776297  0.55859936  0.32451577
   0.40552164  0.41774415  0.32069803
   0.58847987  0.29115901  0.47386305
   0.60179912  0.29901223  0.52813122
   0.66081196  0.44252219  0.44383087
   0.42770047  0.21089984  0.46120868
   0.65969421  0.20970692  0.44553574
unknown system                          
           1
     9.454979   -0.001910   -0.050991
    -4.733923    8.195043   -0.005132
     1.271054    0.829902   19.988287
   C    H    F 
    19     1     3
Direct configuration=    32
   0.12836608  0.98747122  0.32216234
   0.97683912  0.13879909  0.32344204
   0.82542026  0.83607615  0.32344995
   0.82551972  0.98746508  0.32334501
   0.97671975  0.83596980  0.32346388
   0.12842703  0.13876795  0.32224099
   0.27608756  0.98706743  0.32075418
   0.97716087  0.28663582  0.32411058
   0.67750074  0.68906807  0.32256675
   0.67765000  0.98657820  0.32227517
   0.97705405  0.68850181  0.32411322
   0.27627264  0.28688419  0.32111658
   0.40550465  0.98542451  0.32016255
   0.97786710  0.41717368  0.32452076
   0.54689867  0.55958162  0.32121205
   0.54680245  0.98507333  0.32071708
   0.97776399  0.55861417  0.32450676
   0.40555448  0.41778134  0.32070014
   0.58848180  0.29115874  0.47383275
   0.60183965  0.29904067  0.52807744
   0.66083278  0.44259434  0.44388963
   0.42762501  0.21085560  0.46123567
   0.65970255  0.20964663  0.44559112
unknown system                          
           1
     9.452801   -0.001490   -0.050152
    -4.732470    8.192805   -0.005100
     1.272623    0.830893   19.997992
   C    H    F 
    19     1     3
Direct configuration=    33
   0.12833004  0.98745628  0.32217722
   0.97683128  0.13881236  0.32342353
   0.82545358  0.83610918  0.32342383
   0.82555127  0.98746265  0.32331327
   0.97670429  0.83594503  0.32344643
   0.12841172  0.13875557  0.32225164
   0.27602703  0.98707368  0.32077484
   0.97716830  0.28659511  0.32409039
   0.67753591  0.68906819  0.32254337
   0.67765125  0.98661330  0.32225265
   0.97706460  0.68853187  0.32409573
   0.27616520  0.28676838  0.32113547
   0.40553612  0.98541143  0.32016993
   0.97787548  0.41715672  0.32450240
   0.54687884  0.55956830  0.32120010
   0.54681575  0.98506649  0.32070184
   0.97776705  0.55865862  0.32447974
   0.40565298  0.41789291  0.32070647
   0.58848759  0.29115792  0.47374187
   0.60196125  0.29912601  0.52791614
   0.66089526  0.44281083  0.44406591
   0.42739860  0.21072289  0.46131664
   0.65972757  0.20946574  0.44575723
unknown system                          
           1
     9.452208   -0.001376   -0.049923
    -4.732075    8.192196   -0.005091
     1.273051    0.831163   20.000633
   C    H    F 
    19     1     3
Direct configuration=    34
   0.12832023  0.98745221  0.32218127
   0.97682915  0.13881598  0.32341849
   0.82546265  0.83611818  0.32341673
   0.82555985  0.98746199  0.32330464
   0.97670008  0.83593829  0.32344169
   0.12840756  0.13875220  0.32225454
   0.27601055  0.98707538  0.32078046
   0.97717032  0.28658403  0.32408490
   0.67754549  0.68906822  0.32253701
   0.67765159  0.98662285  0.32224653
   0.97706747  0.68854005  0.32409097
   0.27613595  0.28673684  0.32114061
   0.40554469  0.98540786  0.32017194
   0.97787777  0.41715210  0.32449740
   0.54687344  0.55956467  0.32119685
   0.54681937  0.98506463  0.32069770
   0.97776789  0.55867072  0.32447239
   0.40567980  0.41792328  0.32070820
   0.58848917  0.29115770  0.47371714
   0.60199436  0.29914924  0.52787225
   0.66091226  0.44286976  0.44411386
   0.42733695  0.21068675  0.46133867
   0.65973437  0.20941648  0.44580242
unknown system                          
           1
     9.452233   -0.001295   -0.049764
    -4.732017    8.192044   -0.005076
     1.273401    0.831396   20.000882
   C    H    F 
    19     1     3
Direct configuration=    35
   0.12833414  0.98745555  0.32218303
   0.97683459  0.13881851  0.32341601
   0.82545206  0.83610778  0.32341200
   0.82554939  0.98746436  0.32329994
   0.97670589  0.83594158  0.32344038
   0.12841886  0.13876403  0.32225561
   0.27599683  0.98707476  0.32078397
   0.97717010  0.28658270  0.32408171
   0.67754178  0.68906204  0.32253304
   0.67765303  0.98662475  0.32224236
   0.97706776  0.68853782  0.32408743
   0.27612959  0.28673005  0.32114352
   0.40554320  0.98540716  0.32017263
   0.97787929  0.41717154  0.32449422
   0.54688521  0.55957667  0.32119455
   0.54682511  0.98506404  0.32069522
   0.97776960  0.55865381  0.32446796
   0.40567096  0.41791560  0.32070947
   0.58851239  0.29116889  0.47372598
   0.60200150  0.29915490  0.52786966
   0.66090183  0.44285995  0.44412552
   0.42732701  0.21068107  0.46133905
   0.65972082  0.20941190  0.44581339
unknown system                          
           1
     9.452297   -0.001091   -0.049358
    -4.731872    8.191658   -0.005037
     1.274289    0.831987   20.001511
   C    H    F 
    19     1     3
Direct configuration=    36
   0.12836937  0.98746399  0.32218749
   0.97684838  0.13882492  0.32340974
   0.82542522  0.83608142  0.32340002
   0.82552287  0.98747036  0.32328803
   0.97672063  0.83594992  0.32343705
   0.12844751  0.13879399  0.32225831
   0.27596205  0.98707318  0.32079288
   0.97716955  0.28657935  0.32407362
   0.67753240  0.68904637  0.32252297
   0.67765667  0.98662956  0.32223180
   0.97706850  0.68853217  0.32407846
   0.27611348  0.28671285  0.32115087
   0.40553943  0.98540540  0.32017438
   0.97788315  0.41722080  0.32448617
   0.54691505  0.55960706  0.32118871
   0.54683966  0.98506255  0.32068895
   0.97777395  0.55861095  0.32445672
   0.40564857  0.41789614  0.32071270
   0.58857122  0.29119724  0.47374837
   0.60201960  0.29916923  0.52786311
   0.66087540  0.44283509  0.44415506
   0.42730181  0.21066665  0.46134002
   0.65968648  0.20940027  0.44584121
unknown system                          
           1
     9.452341   -0.000964   -0.049145
    -4.731785    8.191490   -0.005012
     1.274758    0.832316   20.001713
   C    H    F 
    19     1     3
Direct configuration=    37
   0.12838077  0.98747093  0.32218998
   0.97685383  0.13882797  0.32340620
   0.82541419  0.83607235  0.32339323
   0.82551261  0.98747110  0.32328145
   0.97672580  0.83595190  0.32343528
   0.12845600  0.13880286  0.32225990
   0.27596399  0.98707209  0.32079771
   0.97716976  0.28659361  0.32406898
   0.67754198  0.68905223  0.32251729
   0.67766251  0.98663287  0.32222570
   0.97706909  0.68851983  0.32407333
   0.27611260  0.28671147  0.32115509
   0.40553026  0.98540475  0.32017536
   0.97788498  0.41721572  0.32448139
   0.54690426  0.55959609  0.32118537
   0.54683527  0.98506148  0.32068550
   0.97777662  0.55861357  0.32445015
   0.40564687  0.41789518  0.32071443
   0.58858821  0.29120466  0.47376112
   0.60202793  0.29917601  0.52786707
   0.66086237  0.44282151  0.44416799
   0.42730144  0.21066590  0.46134062
   0.65966960  0.20939536  0.44585352
unknown system                          
           1
     9.452470   -0.000592   -0.048515
    -4.731527    8.190995   -0.004938
     1.276144    0.833286   20.002308
   C    H    F 
    19     1     3
Direct configuration=    38
   0.12841439  0.98749140  0.32219733
   0.97686992  0.13883699  0.32339574
   0.82538163  0.83604560  0.32337321
   0.82548233  0.98747328  0.32326203
   0.97674108  0.83595774  0.32343005
   0.12848106  0.13882905  0.32226457
   0.27596969  0.98706888  0.32081194
   0.97717039  0.28663567  0.32405526
   0.67757025  0.68906951  0.32250052
   0.67767974  0.98664261  0.32220773
   0.97707082  0.68848343  0.32405819
   0.27611000  0.28670739  0.32116753
   0.40550321  0.98540286  0.32017825
   0.97789038  0.41720073  0.32446728
   0.54687244  0.55956372  0.32117549
   0.54682231  0.98505832  0.32067533
   0.97778448  0.55862128  0.32443077
   0.40564186  0.41789238  0.32071954
   0.58863833  0.29122657  0.47379874
   0.60205253  0.29919603  0.52787876
   0.66082394  0.44278142  0.44420613
   0.42730036  0.21066369  0.46134240
   0.65961981  0.20938089  0.44588987
unknown system                          
           1
     9.452508   -0.000535   -0.048191
    -4.731496    8.190892   -0.004903
     1.276841    0.833771   20.002469
   C    H    F 
    19     1     3
Direct configuration=    39
   0.12841793  0.98749719  0.32220178
   0.97687248  0.13884357  0.32338974
   0.82538281  0.83604683  0.32336177
   0.82548510  0.98747682  0.32325112
   0.97674537  0.83595728  0.32342684
   0.12848284  0.13883222  0.32226755
   0.27597395  0.98706720  0.32082023
   0.97717160  0.28663369  0.32404720
   0.67756260  0.68905504  0.32249056
   0.67767187  0.98664901  0.32219676
   0.97707214  0.68848394  0.32404936
   0.27611553  0.28671432  0.32117422
   0.40550408  0.98540122  0.32017982
   0.97789302  0.41720146  0.32445897
   0.54686627  0.55955735  0.32116985
   0.54681328  0.98505656  0.32066959
   0.97778904  0.55862135  0.32441962
   0.40564333  0.41789450  0.32072246
   0.58863465  0.29122217  0.47381588
   0.60206415  0.29920568  0.52789553
   0.66081126  0.44277079  0.44422373
   0.42731728  0.21067160  0.46134650
   0.65960039  0.20936968  0.44590759
unknown system                          
           1
     9.452620   -0.000364   -0.047218
    -4.731404    8.190584   -0.004795
     1.278932    0.835225   20.002950
   C    H    F 
    19     1     3
Direct configuration=    40
   0.12842856  0.98751457  0.32221512
   0.97688014  0.13886332  0.32337173
   0.82538635  0.83605052  0.32332745
   0.82549340  0.98748743  0.32321837
   0.97675825  0.83595589  0.32341719
   0.12848819  0.13884175  0.32227647
   0.27598673  0.98706214  0.32084507
   0.97717523  0.28662775  0.32402302
   0.67753966  0.68901164  0.32246067
   0.67764828  0.98666819  0.32216388
   0.97707610  0.68848548  0.32402288
   0.27613209  0.28673511  0.32119430
   0.40550666  0.98539630  0.32018452
   0.97790094  0.41720366  0.32443402
   0.54684775  0.55953821  0.32115293
   0.54678622  0.98505128  0.32065238
   0.97780271  0.55862153  0.32438618
   0.40564774  0.41790086  0.32073122
   0.58862359  0.29120894  0.47386733
   0.60209899  0.29923463  0.52794583
   0.66077323  0.44273887  0.44427653
   0.42736803  0.21069533  0.46135880
   0.65954211  0.20933605  0.44596073
unknown system                          
           1
     9.452846   -0.000023   -0.045272
    -4.731221    8.189969   -0.004580
     1.283116    0.838133   20.003914
   C    H    F 
    19     1     3
Direct configuration=    41
   0.12844982  0.98754934  0.32224181
   0.97689549  0.13890284  0.32333572
   0.82539345  0.83605792  0.32325882
   0.82551003  0.98750866  0.32315288
   0.97678400  0.83595311  0.32339791
   0.12849889  0.13886079  0.32229432
   0.27601228  0.98705202  0.32089477
   0.97718250  0.28661587  0.32397466
   0.67749379  0.68892483  0.32240091
   0.67760111  0.98670657  0.32209811
   0.97708404  0.68848855  0.32396992
   0.27616520  0.28677669  0.32123447
   0.40551183  0.98538646  0.32019391
   0.97791679  0.41720807  0.32438414
   0.54681074  0.55949994  0.32111910
   0.54673210  0.98504073  0.32061797
   0.97783006  0.55862191  0.32431930
   0.40565655  0.41791357  0.32074875
   0.58860144  0.29118248  0.47397022
   0.60216865  0.29929251  0.52804642
   0.66069714  0.44267502  0.44438213
   0.42746952  0.21074279  0.46138338
   0.65942552  0.20926878  0.44606703
unknown system                          
           1
     9.453298    0.000661   -0.041381
    -4.730855    8.188739   -0.004150
     1.291482    0.843948   20.005844
   C    H    F 
    19     1     3
Direct configuration=    42
   0.12849229  0.98761885  0.32229519
   0.97692622  0.13898189  0.32326370
   0.82540774  0.83607277  0.32312156
   0.82554335  0.98755117  0.32302189
   0.97683554  0.83594757  0.32335933
   0.12852026  0.13889888  0.32233002
   0.27606333  0.98703173  0.32099415
   0.97719709  0.28659215  0.32387795
   0.67740213  0.68875126  0.32228140
   0.67750687  0.98678339  0.32196658
   0.97709998  0.68849473  0.32386401
   0.27623138  0.28685982  0.32131478
   0.40552215  0.98536677  0.32021271
   0.97794855  0.41721691  0.32428436
   0.54673674  0.55942343  0.32105145
   0.54662391  0.98501965  0.32054915
   0.97788485  0.55862272  0.32418553
   0.40567415  0.41793899  0.32078380
   0.58855703  0.29112949  0.47417599
   0.60230785  0.29940819  0.52824759
   0.66054484  0.44254724  0.44459333
   0.42767248  0.21083770  0.46143254
   0.65919222  0.20913415  0.44627964
unknown system                          
           1
     9.452998    0.000208   -0.043959
    -4.731098    8.189553   -0.004435
     1.285940    0.840096   20.004565
   C    H    F 
    19     1     3
Direct configuration=    43
   0.12846420  0.98757283  0.32225984
   0.97690580  0.13892948  0.32331141
   0.82539817  0.83606287  0.32321247
   0.82552117  0.98752295  0.32310865
   0.97680137  0.83595123  0.32338489
   0.12850613  0.13887367  0.32230638
   0.27602960  0.98704522  0.32092834
   0.97718735  0.28660782  0.32394201
   0.67746275  0.68886619  0.32236054
   0.67756918  0.98673243  0.32205368
   0.97708934  0.68849059  0.32393416
   0.27618761  0.28680479  0.32126160
   0.40551533  0.98537982  0.32020026
   0.97792743  0.41721101  0.32435045
   0.54678570  0.55947408  0.32109624
   0.54669551  0.98503358  0.32059472
   0.97784846  0.55862213  0.32427413
   0.40566252  0.41792217  0.32076059
   0.58858661  0.29116469  0.47403970
   0.60221582  0.29933165  0.52811437
   0.66064589  0.44263198  0.44445343
   0.42753809  0.21077485  0.46140001
   0.65934692  0.20922342  0.44613879
unknown system                          
           1
     9.453085    0.000246   -0.043532
    -4.731108    8.189547   -0.004398
     1.286857    0.840713   20.004427
   C    H    F 
    19     1     3
Direct configuration=    44
   0.12846411  0.98757138  0.32226656
   0.97690593  0.13892601  0.32330238
   0.82539951  0.83605987  0.32319605
   0.82551796  0.98752619  0.32309230
   0.97680141  0.83595607  0.32337889
   0.12850663  0.13887870  0.32231076
   0.27601982  0.98704452  0.32094073
   0.97718954  0.28660660  0.32392988
   0.67747414  0.68886814  0.32234509
   0.67757684  0.98674217  0.32203708
   0.97709281  0.68849540  0.32392112
   0.27617891  0.28679976  0.32127121
   0.40551397  0.98537650  0.32020267
   0.97793134  0.41721085  0.32433727
   0.54678534  0.55947303  0.32108795
   0.54669246  0.98503174  0.32058656
   0.97785490  0.55862542  0.32425815
   0.40566247  0.41792310  0.32076466
   0.58856656  0.29115254  0.47406532
   0.60222482  0.29934040  0.52814240
   0.66064301  0.44263720  0.44447591
   0.42755471  0.21078271  0.46141132
   0.65933377  0.20920116  0.44616240
unknown system                          
           1
     9.453345    0.000359   -0.042254
    -4.731140    8.189530   -0.004289
     1.289606    0.842562   20.004015
   C    H    F 
    19     1     3
Direct configuration=    45
   0.12846383  0.98756702  0.32228670
   0.97690631  0.13891558  0.32327528
   0.82540356  0.83605088  0.32314679
   0.82550834  0.98753591  0.32304325
   0.97680151  0.83597059  0.32336091
   0.12850813  0.13889378  0.32232387
   0.27599049  0.98704242  0.32097789
   0.97719611  0.28660295  0.32389349
   0.67750831  0.68887401  0.32229876
   0.67759981  0.98677139  0.32198727
   0.97710321  0.68850983  0.32388201
   0.27615282  0.28678466  0.32130004
   0.40550989  0.98536653  0.32020990
   0.97794309  0.41721038  0.32429774
   0.54678426  0.55946986  0.32106308
   0.54668331  0.98502621  0.32056211
   0.97787422  0.55863531  0.32421020
   0.40566230  0.41792590  0.32077687
   0.58850639  0.29111608  0.47414218
   0.60225184  0.29936663  0.52822650
   0.66063434  0.44265287  0.44454336
   0.42760457  0.21080629  0.46144523
   0.65929430  0.20913436  0.44623323
unknown system                          
           1
     9.453865    0.000587   -0.039697
    -4.731203    8.189495   -0.004069
     1.295104    0.846260   20.003190
   C    H    F 
    19     1     3
Direct configuration=    46
   0.12846326  0.98755831  0.32232698
   0.97690708  0.13889473  0.32322108
   0.82541170  0.83603292  0.32304827
   0.82548915  0.98755539  0.32294514
   0.97680172  0.83599964  0.32332496
   0.12851113  0.13892395  0.32235010
   0.27593179  0.98703821  0.32105224
   0.97720929  0.28659566  0.32382071
   0.67757669  0.68888576  0.32220609
   0.67764581  0.98682985  0.32188764
   0.97712405  0.68853872  0.32380379
   0.27610062  0.28675444  0.32135771
   0.40550172  0.98534659  0.32022435
   0.97796661  0.41720947  0.32421868
   0.54678213  0.55946353  0.32101333
   0.54666503  0.98501518  0.32051320
   0.97791291  0.55865511  0.32411429
   0.40566197  0.41793148  0.32080129
   0.58838598  0.29104312  0.47429591
   0.60230579  0.29941905  0.52839468
   0.66061697  0.44268416  0.44467826
   0.42770427  0.21085343  0.46151306
   0.65921530  0.20900072  0.44637489
unknown system                          
           1
     9.454908    0.001041   -0.034583
    -4.731332    8.189427   -0.003631
     1.306100    0.853656   20.001546
   C    H    F 
    19     1     3
Direct configuration=    47
   0.12846205  0.98754084  0.32240754
   0.97690873  0.13885308  0.32311269
   0.82542814  0.83599710  0.32285121
   0.82545091  0.98759442  0.32274893
   0.97680220  0.83605778  0.32325304
   0.12851707  0.13898426  0.32240256
   0.27581427  0.98702972  0.32120095
   0.97723577  0.28658115  0.32367514
   0.67771360  0.68890934  0.32202073
   0.67773795  0.98694686  0.32168836
   0.97716586  0.68859657  0.32364733
   0.27599613  0.28669397  0.32147307
   0.40548535  0.98530670  0.32025325
   0.97801377  0.41720771  0.32406055
   0.54677795  0.55945092  0.32091383
   0.54662854  0.98499315  0.32041538
   0.97799045  0.55869480  0.32392246
   0.40566126  0.41794264  0.32085013
   0.58814493  0.29089708  0.47460342
   0.60241343  0.29952375  0.52873105
   0.66058199  0.44274663  0.44494808
   0.42790354  0.21094765  0.46164870
   0.65905708  0.20873333  0.44665825
unknown system                          
           1
     9.454528    0.000876   -0.036446
    -4.731285    8.189451   -0.003790
     1.302094    0.850962   20.002144
   C    H    F 
    19     1     3
Direct configuration=    48
   0.12846254  0.98754723  0.32237819
   0.97690806  0.13886821  0.32315218
   0.82542203  0.83601008  0.32292300
   0.82546472  0.98758013  0.32282041
   0.97680198  0.83603658  0.32327924
   0.12851493  0.13896231  0.32238345
   0.27585717  0.98703286  0.32114676
   0.97722604  0.28658639  0.32372817
   0.67766362  0.68890069  0.32208828
   0.67770427  0.98690417  0.32176097
   0.97715054  0.68857545  0.32370434
   0.27603426  0.28671603  0.32143103
   0.40549133  0.98532124  0.32024272
   0.97799649  0.41720830  0.32411816
   0.54677942  0.55945548  0.32095008
   0.54664177  0.98500114  0.32045101
   0.97796209  0.55868028  0.32399235
   0.40566155  0.41793859  0.32083234
   0.58823291  0.29095038  0.47449136
   0.60237442  0.29948572  0.52860852
   0.66059489  0.44272396  0.44484978
   0.42783104  0.21091337  0.46159930
   0.65911488  0.20883083  0.44655500
unknown system                          
           1
     9.454722    0.000976   -0.035700
    -4.731296    8.189448   -0.003740
     1.303706    0.852013   20.001756
   C    H    F 
    19     1     3
Direct configuration=    49
   0.12845204  0.98754437  0.32239022
   0.97690475  0.13885831  0.32313580
   0.82542752  0.83601385  0.32289284
   0.82546208  0.98757905  0.32279016
   0.97679946  0.83604373  0.32326659
   0.12850782  0.13895764  0.32239159
   0.27586105  0.98703135  0.32116913
   0.97723062  0.28658572  0.32370549
   0.67767442  0.68889568  0.32205860
   0.67771557  0.98692008  0.32172969
   0.97715741  0.68857982  0.32368039
   0.27603205  0.28672252  0.32144873
   0.40546106  0.98531515  0.32024777
   0.97800426  0.41721096  0.32409253
   0.54680282  0.55947629  0.32093524
   0.54665531  0.98499956  0.32043602
   0.97797321  0.55869352  0.32396354
   0.40564245  0.41792124  0.32083945
   0.58821383  0.29093804  0.47453660
   0.60237640  0.29949224  0.52865828
   0.66059824  0.44273784  0.44489114
   0.42783875  0.21091698  0.46162685
   0.65909985  0.20879552  0.44660000
unknown system                          
           1
     9.455304    0.001275   -0.033463
    -4.731328    8.189440   -0.003591
     1.308541    0.855165   20.000593
   C    H    F 
    19     1     3
Direct configuration=    50
   0.12842055  0.98753578  0.32242630
   0.97689481  0.13882859  0.32308665
   0.82544400  0.83602517  0.32280236
   0.82545417  0.98757581  0.32269940
   0.97679189  0.83606518  0.32322864
   0.12848646  0.13894365  0.32241600
   0.27587268  0.98702682  0.32123625
   0.97724439  0.28658371  0.32363745
   0.67770682  0.68888066  0.32196959
   0.67774950  0.98696782  0.32163583
   0.97717806  0.68859294  0.32360856
   0.27602539  0.28674198  0.32150182
   0.40537024  0.98529686  0.32026294
   0.97802757  0.41721896  0.32401563
   0.54687305  0.55953871  0.32089071
   0.54669591  0.98499481  0.32039103
   0.97800660  0.55873324  0.32387709
   0.40558513  0.41786919  0.32086081
   0.58815652  0.29090098  0.47467234
   0.60238232  0.29951177  0.52880757
   0.66060826  0.44277945  0.44501522
   0.42786187  0.21092780  0.46170948
   0.65905475  0.20868958  0.44673500
unknown system                          
           1
     9.456471    0.001875   -0.028990
    -4.731393    8.189426   -0.003291
     1.318211    0.861471   19.998270
   C    H    F 
    19     1     3
Direct configuration=    51
   0.12835752  0.98751856  0.32249848
   0.97687500  0.13876919  0.32298834
   0.82547709  0.83604788  0.32262139
   0.82543849  0.98756939  0.32251787
   0.97677682  0.83610812  0.32315274
   0.12844372  0.13891565  0.32246483
   0.27589583  0.98701771  0.32137048
   0.97727202  0.28657974  0.32350135
   0.67777175  0.68885069  0.32179153
   0.67781749  0.98706337  0.32144810
   0.97721946  0.68861924  0.32346487
   0.27601202  0.28678085  0.32160801
   0.40518859  0.98526027  0.32029328
   0.97807431  0.41723501  0.32386182
   0.54701356  0.55966360  0.32080162
   0.54677719  0.98498533  0.32030104
   0.97807349  0.55881274  0.32370417
   0.40547049  0.41776508  0.32090354
   0.58804174  0.29082677  0.47494383
   0.60239393  0.29955071  0.52910617
   0.66062811  0.44286257  0.44526340
   0.42790800  0.21094938  0.46187475
   0.65896435  0.20847758  0.44700502
unknown system                          
           1
     9.455703    0.001481   -0.031931
    -4.731350    8.189435   -0.003488
     1.311853    0.857325   19.999797
   C    H    F 
    19     1     3
Direct configuration=    52
   0.12839902  0.98752991  0.32245101
   0.97688793  0.13880819  0.32305298
   0.82545517  0.83603286  0.32274039
   0.82544863  0.98757352  0.32263723
   0.97678665  0.83607985  0.32320265
   0.12847186  0.13893408  0.32243271
   0.27588074  0.98702377  0.32128222
   0.97725373  0.28658228  0.32359084
   0.67772890  0.68887031  0.32190862
   0.67777262  0.98700046  0.32157155
   0.97719211  0.68860188  0.32355935
   0.27602091  0.28675535  0.32153818
   0.40530803  0.98528433  0.32027330
   0.97804344  0.41722438  0.32396296
   0.54692111  0.55958145  0.32086022
   0.54672368  0.98499152  0.32036022
   0.97802936  0.55876038  0.32381788
   0.40554589  0.41783355  0.32087542
   0.58811745  0.29087569  0.47476530
   0.60238658  0.29952526  0.52890984
   0.66061529  0.44280805  0.44510022
   0.42787783  0.21093528  0.46176609
   0.65902403  0.20861710  0.44682746
unknown system                          
           1
     9.456134    0.001765   -0.030939
    -4.731319    8.189359   -0.003442
     1.314034    0.858693   19.998909
   C    H    F 
    19     1     3
Direct configuration=    53
   0.12837288  0.98752864  0.32246756
   0.97687660  0.13879063  0.32303043
   0.82546812  0.83605881  0.32269753
   0.82546164  0.98755869  0.32259190
   0.97678079  0.83608301  0.32318032
   0.12844692  0.13890052  0.32244512
   0.27586666  0.98702132  0.32131370
   0.97726109  0.28658899  0.32355651
   0.67775393  0.68887559  0.32186315
   0.67778934  0.98701837  0.32152388
   0.97720254  0.68861481  0.32352556
   0.27600925  0.28675850  0.32156370
   0.40530594  0.98527602  0.32028145
   0.97805613  0.41723578  0.32392155
   0.54693043  0.55958439  0.32083962
   0.54672819  0.98499351  0.32033838
   0.97804398  0.55877452  0.32377719
   0.40555014  0.41784118  0.32088474
   0.58813702  0.29088342  0.47482467
   0.60235290  0.29951115  0.52897495
   0.66063339  0.44282154  0.44516280
   0.42784573  0.21092060  0.46182274
   0.65901735  0.20858948  0.44689918
unknown system                          
           1
     9.457425    0.002620   -0.027963
    -4.731226    8.189131   -0.003305
     1.320575    0.862797   19.996249
   C    H    F 
    19     1     3
Direct configuration=    54
   0.12829443  0.98752482  0.32251721
   0.97684263  0.13873794  0.32296278
   0.82550701  0.83613669  0.32256892
   0.82550070  0.98751421  0.32245592
   0.97676323  0.83609249  0.32311336
   0.12837208  0.13879981  0.32248234
   0.27582442  0.98701397  0.32140815
   0.97728321  0.28660913  0.32345351
   0.67782907  0.68889146  0.32172673
   0.67783956  0.98707212  0.32138086
   0.97723387  0.68865363  0.32342416
   0.27597426  0.28676794  0.32164027
   0.40529966  0.98525109  0.32030591
   0.97809421  0.41726999  0.32379732
   0.54695839  0.55959320  0.32077783
   0.54674175  0.98499949  0.32027284
   0.97808788  0.55881694  0.32365512
   0.40556289  0.41786406  0.32091270
   0.58819568  0.29090655  0.47500278
   0.60225180  0.29946879  0.52917031
   0.66068763  0.44286198  0.44535055
   0.42774938  0.21087653  0.46199273
   0.65899722  0.20850661  0.44711437
unknown system                          
           1
     9.460011    0.004328   -0.022011
    -4.731042    8.188677   -0.003031
     1.333659    0.871005   19.990935
   C    H    F 
    19     1     3
Direct configuration=    55
   0.12813747  0.98751715  0.32261653
   0.97677483  0.13863263  0.32282747
   0.82558502  0.83629258  0.32231166
   0.82557908  0.98742540  0.32218390
   0.97672824  0.83611152  0.32297941
   0.12822235  0.13859837  0.32255682
   0.27573975  0.98699918  0.32159707
   0.97732764  0.28664951  0.32324748
   0.67797958  0.68892332  0.32145384
   0.67794027  0.98717977  0.32109478
   0.97729672  0.68873137  0.32322132
   0.27590415  0.28678676  0.32179342
   0.40528706  0.98520119  0.32035482
   0.97817062  0.41733854  0.32354882
   0.54701444  0.55961089  0.32065421
   0.54676899  0.98501152  0.32014175
   0.97817590  0.55890190  0.32341093
   0.40558831  0.41790979  0.32096861
   0.58831262  0.29095262  0.47535903
   0.60204926  0.29938388  0.52956111
   0.66079574  0.44294265  0.44572608
   0.42755637  0.21078824  0.46233277
   0.65895657  0.20834065  0.44754481
unknown system                          
           1
     9.459379    0.003910   -0.023466
    -4.731086    8.188787   -0.003098
     1.330460    0.868998   19.992233
   C    H    F 
    19     1     3
Direct configuration=    56
   0.12817589  0.98751905  0.32259223
   0.97679134  0.13865835  0.32286056
   0.82556582  0.83625440  0.32237460
   0.82555979  0.98744706  0.32225044
   0.97673673  0.83610683  0.32301218
   0.12825899  0.13864765  0.32253859
   0.27576054  0.98700284  0.32155085
   0.97731668  0.28663958  0.32329788
   0.67794265  0.68891546  0.32152060
   0.67791551  0.98715338  0.32116477
   0.97728126  0.68871231  0.32327094
   0.27592136  0.28678219  0.32175595
   0.40529017  0.98521341  0.32034285
   0.97815182  0.41732171  0.32360961
   0.54700068  0.55960653  0.32068445
   0.54676226  0.98500854  0.32017382
   0.97815426  0.55888107  0.32347067
   0.40558212  0.41789862  0.32095494
   0.58828420  0.29094145  0.47527189
   0.60209896  0.29940474  0.52946550
   0.66076949  0.44292302  0.44563423
   0.42760372  0.21080991  0.46224957
   0.65896671  0.20838134  0.44743951
unknown system                          
           1
     9.459615    0.003919   -0.021658
    -4.731198    8.189049   -0.003032
     1.334313    0.871395   19.991428
   C    H    F 
    19     1     3
Direct configuration=    57
   0.12815318  0.98747163  0.32262192
   0.97678560  0.13865316  0.32281280
   0.82558036  0.83624018  0.32228421
   0.82557418  0.98747748  0.32215324
   0.97672866  0.83611209  0.32295805
   0.12823404  0.13865916  0.32256465
   0.27575686  0.98699264  0.32161429
   0.97732684  0.28663173  0.32322290
   0.67796164  0.68890931  0.32141975
   0.67794117  0.98717035  0.32106017
   0.97729730  0.68874513  0.32319950
   0.27589635  0.28678849  0.32180946
   0.40527553  0.98520136  0.32036243
   0.97818127  0.41735692  0.32351533
   0.54702901  0.55961459  0.32064377
   0.54677000  0.98502019  0.32012898
   0.97818270  0.55890293  0.32338661
   0.40557871  0.41790240  0.32097195
   0.58829242  0.29094345  0.47539276
   0.60195419  0.29932884  0.52958768
   0.66083030  0.44292193  0.44576797
   0.42757907  0.21080625  0.46240819
   0.65898158  0.20837924  0.44760004
unknown system                          
           1
     9.460328    0.003943   -0.016232
    -4.731535    8.189836   -0.002834
     1.345874    0.878585   19.989017
   C    H    F 
    19     1     3
Direct configuration=    58
   0.12808499  0.98732937  0.32271101
   0.97676846  0.13863764  0.32266953
   0.82562414  0.83619759  0.32201305
   0.82561752  0.98756882  0.32186160
   0.97670453  0.83612794  0.32279567
   0.12815914  0.13869366  0.32264285
   0.27574572  0.98696200  0.32180460
   0.97735743  0.28660825  0.32299795
   0.67801877  0.68889096  0.32111718
   0.67801832  0.98722137  0.32074637
   0.97734557  0.68884364  0.32298516
   0.27582121  0.28680731  0.32196999
   0.40523157  0.98516521  0.32042115
   0.97826977  0.41746262  0.32323245
   0.54711407  0.55963879  0.32052170
   0.54679328  0.98505515  0.31999446
   0.97826816  0.55896861  0.32313442
   0.40556845  0.41791370  0.32102298
   0.58831686  0.29094933  0.47575536
   0.60151968  0.29910104  0.52995427
   0.66101251  0.44291853  0.44616920
   0.42750487  0.21079514  0.46288406
   0.65902593  0.20837279  0.44808165
unknown system                          
           1
     9.461762    0.003993   -0.005381
    -4.732212    8.191418   -0.002439
     1.368996    0.892966   19.984213
   C    H    F 
    19     1     3
Direct configuration=    59
   0.12794831  0.98704471  0.32288925
   0.97673468  0.13860686  0.32238296
   0.82571259  0.83611292  0.32147062
   0.82570518  0.98775202  0.32127823
   0.97665682  0.83615991  0.32247089
   0.12800908  0.13876252  0.32279932
   0.27572280  0.98690037  0.32218528
   0.97741936  0.28656169  0.32254797
   0.67813406  0.68885480  0.32051195
   0.67817368  0.98732396  0.32011864
   0.97744282  0.68904102  0.32255639
   0.27567039  0.28684466  0.32229112
   0.40514347  0.98509281  0.32053862
   0.97844772  0.41767452  0.32266658
   0.54728460  0.55968740  0.32027748
   0.54684028  0.98512531  0.31972538
   0.97843992  0.55910040  0.32262993
   0.40554775  0.41793621  0.32112506
   0.58836453  0.29096045  0.47648064
   0.60064946  0.29864480  0.53068779
   0.66137557  0.44291102  0.44697164
   0.42735488  0.21077206  0.46383595
   0.65911300  0.20835904  0.44904496
unknown system                          
           1
     9.461021    0.003968   -0.010973
    -4.731862    8.190601   -0.002643
     1.357079    0.885554   19.986686
   C    H    F 
    19     1     3
Direct configuration=    60
   0.12801906  0.98719155  0.32279733
   0.97675159  0.13862246  0.32253068
   0.82566607  0.83615605  0.32175027
   0.82565899  0.98765708  0.32157899
   0.97668084  0.83614314  0.32263830
   0.12808669  0.13872719  0.32271862
   0.27573527  0.98693247  0.32198903
   0.97738666  0.28658527  0.32277995
   0.67807360  0.68887288  0.32082398
   0.67809253  0.98727052  0.32044228
   0.97739196  0.68893892  0.32277745
   0.27574867  0.28682571  0.32212554
   0.40518908  0.98513023  0.32047804
   0.97835503  0.41756481  0.32295834
   0.54719630  0.55966212  0.32040342
   0.54681559  0.98508891  0.31986410
   0.97835053  0.55903203  0.32289005
   0.40555859  0.41792470  0.32107243
   0.58834122  0.29095538  0.47610677
   0.60109920  0.29888059  0.53030941
   0.66118986  0.44291561  0.44655808
   0.42743383  0.21078483  0.46334520
   0.65906980  0.20836701  0.44854840
unknown system                          
           1
     9.461058    0.003990   -0.009656
    -4.731862    8.190641   -0.002582
     1.359868    0.887319   19.986745
   C    H    F 
    19     1     3
Direct configuration=    61
   0.12802271  0.98718460  0.32281742
   0.97675304  0.13863386  0.32249388
   0.82566751  0.83615050  0.32167986
   0.82566291  0.98766812  0.32150533
   0.97668171  0.83614359  0.32259691
   0.12808365  0.13873354  0.32273850
   0.27571769  0.98691946  0.32203592
   0.97739147  0.28661884  0.32272211
   0.67810202  0.68888561  0.32074624
   0.67809752  0.98727932  0.32036097
   0.97739972  0.68893340  0.32272341
   0.27573468  0.28683331  0.32216541
   0.40519504  0.98512289  0.32049355
   0.97837725  0.41755161  0.32288533
   0.54718978  0.55963861  0.32037271
   0.54682670  0.98510072  0.31983004
   0.97837100  0.55907060  0.32282572
   0.40555282  0.41792311  0.32108460
   0.58831992  0.29094300  0.47620904
   0.60097478  0.29881514  0.53040264
   0.66124360  0.44291333  0.44665696
   0.42743422  0.21079340  0.46347199
   0.65909121  0.20837291  0.44866809
unknown system                          
           1
     9.461169    0.004056   -0.005705
    -4.731860    8.190763   -0.002399
     1.368235    0.892613   19.986927
   C    H    F 
    19     1     3
Direct configuration=    62
   0.12803365  0.98716373  0.32287769
   0.97675743  0.13866809  0.32238349
   0.82567194  0.83613389  0.32146865
   0.82567475  0.98770127  0.32128437
   0.97668438  0.83614499  0.32247272
   0.12807450  0.13875259  0.32279813
   0.27566489  0.98688040  0.32217661
   0.97740595  0.28671959  0.32254859
   0.67818739  0.68892384  0.32051303
   0.67811260  0.98730578  0.32011705
   0.97742305  0.68891688  0.32256130
   0.27569264  0.28685607  0.32228504
   0.40521290  0.98510086  0.32054010
   0.97844400  0.41751205  0.32266630
   0.54717028  0.55956808  0.32028057
   0.54686008  0.98513619  0.31972785
   0.97843250  0.55918635  0.32263275
   0.40553548  0.41791830  0.32112111
   0.58825588  0.29090579  0.47651585
   0.60060140  0.29861874  0.53068237
   0.66140472  0.44290641  0.44695357
   0.42743525  0.21081903  0.46385236
   0.65915530  0.20839054  0.44902715
unknown system                          
           1
     9.461396    0.004190    0.002198
    -4.731860    8.191009   -0.002033
     1.384971    0.903201   19.987300
   C    H    F 
    19     1     3
Direct configuration=    63
   0.12805540  0.98712191  0.32299822
   0.97676647  0.13873669  0.32216271
   0.82568129  0.83610095  0.32104624
   0.82569895  0.98776785  0.32084245
   0.97669000  0.83614795  0.32222434
   0.12805606  0.13879060  0.32291740
   0.27555895  0.98680211  0.32245799
   0.97743535  0.28692132  0.32220154
   0.67835869  0.68900060  0.32004658
   0.67814334  0.98735900  0.31962921
   0.97747012  0.68888404  0.32223707
   0.27560828  0.28690145  0.32252431
   0.40524851  0.98505674  0.32063319
   0.97857803  0.41743321  0.32222822
   0.54713148  0.55942715  0.32009631
   0.54692709  0.98520725  0.31952346
   0.97855596  0.55941810  0.32224678
   0.40550071  0.41790865  0.32119412
   0.58812707  0.29083098  0.47712948
   0.59985394  0.29822556  0.53124197
   0.66172624  0.44289218  0.44754672
   0.42743639  0.21086981  0.46461310
   0.65928262  0.20842533  0.44974525
unknown system                          
           1
     9.461238    0.004097   -0.003273
    -4.731860    8.190838   -0.002286
     1.373384    0.895870   19.987040
   C    H    F 
    19     1     3
Direct configuration=    64
   0.12804054  0.98715097  0.32291478
   0.97675984  0.13868900  0.32231556
   0.82567411  0.83612338  0.32133868
   0.82568146  0.98772136  0.32114840
   0.97668569  0.83614568  0.32239629
   0.12806903  0.13876439  0.32283483
   0.27563277  0.98685656  0.32226316
   0.97741442  0.28678135  0.32244181
   0.67823931  0.68894704  0.32036955
   0.67812124  0.98732172  0.31996696
   0.97743699  0.68890648  0.32246155
   0.27566708  0.28687025  0.32235864
   0.40522401  0.98508736  0.32056875
   0.97848451  0.41748740  0.32253154
   0.54715803  0.55952455  0.32022386
   0.54688036  0.98515787  0.31966498
   0.97846984  0.55925731  0.32251403
   0.40552490  0.41791540  0.32114356
   0.58821728  0.29088332  0.47670462
   0.60037237  0.29849827  0.53085435
   0.66150463  0.44290255  0.44713616
   0.42743687  0.21083534  0.46408644
   0.65919567  0.20840188  0.44924814
unknown system                          
           1
     9.460979    0.003968   -0.001805
    -4.731843    8.190694   -0.002187
     1.376437    0.897863   19.988399
   C    H    F 
    19     1     3
Direct configuration=    65
   0.12806564  0.98720244  0.32293258
   0.97676971  0.13873000  0.32227112
   0.82567716  0.83615043  0.32125426
   0.82568015  0.98771260  0.32106459
   0.97670684  0.83614462  0.32234957
   0.12808891  0.13876232  0.32285761
   0.27562431  0.98683140  0.32231277
   0.97741341  0.28679063  0.32237482
   0.67823318  0.68892966  0.32027776
   0.67812486  0.98732714  0.31987044
   0.97743579  0.68890166  0.32239870
   0.27564971  0.28687215  0.32240256
   0.40522471  0.98508455  0.32058859
   0.97850763  0.41753183  0.32244634
   0.54716140  0.55950524  0.32018891
   0.54688770  0.98517686  0.31962536
   0.97849002  0.55923528  0.32243949
   0.40551026  0.41790149  0.32115654
   0.58815347  0.29084745  0.47684234
   0.60021207  0.29841648  0.53097195
   0.66157534  0.44289824  0.44724363
   0.42746023  0.21086091  0.46423809
   0.65923844  0.20841607  0.44937864
unknown system                          
           1
     9.460202    0.003579    0.002601
    -4.731792    8.190265   -0.001890
     1.385594    0.903841   19.992480
   C    H    F 
    19     1     3
Direct configuration=    66
   0.12814089  0.98735685  0.32298599
   0.97679940  0.13885303  0.32213781
   0.82568642  0.83623163  0.32100100
   0.82567635  0.98768637  0.32081316
   0.97677034  0.83614147  0.32220940
   0.12814854  0.13875611  0.32292594
   0.27559886  0.98675588  0.32246159
   0.97741046  0.28681851  0.32217384
   0.67821490  0.68887758  0.32000241
   0.67813584  0.98734347  0.31958092
   0.97743227  0.68888722  0.32221017
   0.27559751  0.28687780  0.32253431
   0.40522677  0.98507608  0.32064809
   0.97857713  0.41766520  0.32219075
   0.54717156  0.55944731  0.32008404
   0.54690978  0.98523384  0.31950650
   0.97855066  0.55916925  0.32221591
   0.40546633  0.41785975  0.32119547
   0.58796188  0.29073974  0.47725547
   0.59973099  0.29817100  0.53132477
   0.66178736  0.44288523  0.44756601
   0.42753011  0.21093754  0.46469301
   0.65936660  0.20845856  0.44977008
unknown system                          
           1
     9.460041    0.003498    0.003513
    -4.731782    8.190176   -0.001828
     1.387489    0.905078   19.993325
   C    H    F 
    19     1     3
Direct configuration=    67
   0.12815646  0.98738880  0.32299704
   0.97680559  0.13887852  0.32211022
   0.82568841  0.83624847  0.32094859
   0.82567563  0.98768098  0.32076114
   0.97678352  0.83614084  0.32218039
   0.12816086  0.13875482  0.32294008
   0.27559356  0.98674023  0.32249238
   0.97740991  0.28682431  0.32213226
   0.67821119  0.68886685  0.31994544
   0.67813818  0.98734689  0.31952102
   0.97743160  0.68888426  0.32217117
   0.27558667  0.28687895  0.32256157
   0.40522718  0.98507431  0.32066041
   0.97859158  0.41769284  0.32213787
   0.54717369  0.55943534  0.32006235
   0.54691439  0.98524566  0.31948191
   0.97856327  0.55915561  0.32216964
   0.40545722  0.41785111  0.32120353
   0.58792211  0.29071739  0.47734096
   0.59963132  0.29812014  0.53139779
   0.66183116  0.44288250  0.44763271
   0.42754446  0.21095334  0.46478713
   0.65939302  0.20846730  0.44985107
unknown system                          
           1
     9.459521    0.003318    0.004215
    -4.731677    8.189829   -0.001752
     1.388877    0.906047   19.995643
   C    H    F 
    19     1     3
Direct configuration=    68
   0.12817408  0.98742138  0.32299557
   0.97681744  0.13888138  0.32208841
   0.82570077  0.83626140  0.32090741
   0.82569230  0.98769732  0.32072722
   0.97680724  0.83616720  0.32216320
   0.12816111  0.13877157  0.32294609
   0.27559067  0.98672823  0.32250374
   0.97740275  0.28682343  0.32210333
   0.67820954  0.68887482  0.31990498
   0.67815885  0.98733942  0.31947839
   0.97742167  0.68884710  0.32214467
   0.27556570  0.28684914  0.32257628
   0.40521567  0.98508393  0.32067025
   0.97858995  0.41769152  0.32210205
   0.54716853  0.55941660  0.32004942
   0.54690893  0.98526068  0.31946527
   0.97856414  0.55916913  0.32213820
   0.40546537  0.41785151  0.32120718
   0.58792358  0.29070930  0.47740656
   0.59955624  0.29808812  0.53148261
   0.66185079  0.44285911  0.44767775
   0.42752940  0.21095662  0.46484646
   0.65941626  0.20848053  0.44990162
unknown system                          
           1
     9.458331    0.002908    0.005819
    -4.731437    8.189035   -0.001576
     1.392051    0.908265   20.000945
   C    H    F 
    19     1     3
Direct configuration=    69
   0.12821440  0.98749592  0.32299219
   0.97684456  0.13888792  0.32203851
   0.82572905  0.83629098  0.32081324
   0.82573042  0.98773469  0.32064965
   0.97686150  0.83622750  0.32212389
   0.12816169  0.13880989  0.32295985
   0.27558405  0.98670078  0.32252970
   0.97738639  0.28682144  0.32203716
   0.67820578  0.68889307  0.31981244
   0.67820614  0.98732234  0.31938091
   0.97739897  0.68876212  0.32208408
   0.27551774  0.28678094  0.32260992
   0.40518934  0.98510593  0.32069275
   0.97858622  0.41768852  0.32202016
   0.54715672  0.55937374  0.32001987
   0.54689644  0.98529506  0.31942723
   0.97856613  0.55920003  0.32206630
   0.40548400  0.41785241  0.32121553
   0.58792693  0.29069079  0.47755657
   0.59938448  0.29801488  0.53167658
   0.66189566  0.44280560  0.44778077
   0.42749494  0.21096413  0.46498213
   0.65946942  0.20851078  0.45001722
unknown system                          
           1
     9.457785    0.002658    0.006418
    -4.731380    8.188780   -0.001515
     1.393211    0.909065   20.003158
   C    H    F 
    19     1     3
Direct configuration=    70
   0.12822556  0.98751391  0.32298740
   0.97685387  0.13888732  0.32202042
   0.82574481  0.83629761  0.32077910
   0.82575421  0.98775222  0.32062272
   0.97688108  0.83624589  0.32211081
   0.12815305  0.13882168  0.32296195
   0.27556028  0.98669505  0.32253419
   0.97737824  0.28681688  0.32201410
   0.67820696  0.68890802  0.31977986
   0.67820017  0.98731298  0.31934705
   0.97738920  0.68877382  0.32206352
   0.27552618  0.28677560  0.32261932
   0.40519643  0.98511894  0.32070043
   0.97857914  0.41768218  0.32199177
   0.54716120  0.55936596  0.32000995
   0.54691525  0.98531037  0.31941409
   0.97856326  0.55917892  0.32204130
   0.40547026  0.41782786  0.32121795
   0.58793979  0.29068667  0.47761374
   0.59932377  0.29799108  0.53175397
   0.66190715  0.44277986  0.44781816
   0.42747404  0.21096368  0.46502727
   0.65948704  0.20852294  0.45005758
unknown system                          
           1
     9.456416    0.002034    0.007917
    -4.731237    8.188141   -0.001363
     1.396115    0.911069   20.008700
   C    H    F 
    19     1     3
Direct configuration=    71
   0.12825353  0.98755899  0.32297540
   0.97687719  0.13888582  0.32197511
   0.82578430  0.83631424  0.32069359
   0.82581382  0.98779612  0.32055529
   0.97693014  0.83629196  0.32207804
   0.12813140  0.13885121  0.32296723
   0.27550075  0.98668068  0.32254543
   0.97735784  0.28680548  0.32195634
   0.67820993  0.68894547  0.31969828
   0.67818524  0.98728955  0.31926226
   0.97736474  0.68880313  0.32201204
   0.27554733  0.28676223  0.32264285
   0.40521418  0.98515153  0.32071966
   0.97856139  0.41766630  0.32192068
   0.54717242  0.55934650  0.31998512
   0.54696237  0.98534871  0.31938117
   0.97855608  0.55912604  0.32197870
   0.40543585  0.41776637  0.32122400
   0.58797197  0.29067633  0.47775691
   0.59917166  0.29793144  0.53194780
   0.66193593  0.44271537  0.44791178
   0.42742169  0.21096255  0.46514031
   0.65953118  0.20855341  0.45015867
unknown system                          
           1
     9.456239    0.001999    0.008113
    -4.731177    8.188179   -0.001379
     1.396500    0.911267   20.009062
   C    H    F 
    19     1     3
Direct configuration=    72
   0.12823808  0.98755038  0.32296993
   0.97687495  0.13889374  0.32197062
   0.82579621  0.83631901  0.32068537
   0.82581641  0.98778949  0.32054842
   0.97692378  0.83628414  0.32207422
   0.12812760  0.13884453  0.32296307
   0.27550495  0.98668956  0.32253964
   0.97735446  0.28678937  0.32195101
   0.67821427  0.68895923  0.31969131
   0.67819103  0.98728706  0.31925638
   0.97736379  0.68881782  0.32200862
   0.27554929  0.28675508  0.32264196
   0.40521800  0.98516179  0.32072072
   0.97855208  0.41765246  0.32191453
   0.54718096  0.55935055  0.31998294
   0.54696794  0.98535619  0.31937846
   0.97854937  0.55913350  0.32197271
   0.40544862  0.41777104  0.32122371
   0.58797645  0.29067325  0.47777728
   0.59915967  0.29792790  0.53196777
   0.66193599  0.44270628  0.44792592
   0.42741677  0.21096152  0.46515039
   0.65953027  0.20855556  0.45017168
unknown system                          
           1
     9.455706    0.001897    0.008702
    -4.731000    8.188294   -0.001426
     1.397657    0.911863   20.010148
   C    H    F 
    19     1     3
Direct configuration=    73
   0.12819174  0.98752456  0.32295351
   0.97686824  0.13891750  0.32195717
   0.82583194  0.83633331  0.32066068
   0.82582420  0.98776960  0.32052782
   0.97690471  0.83626067  0.32206276
   0.12811618  0.13882446  0.32295059
   0.27551758  0.98671621  0.32252229
   0.97734430  0.28674103  0.32193501
   0.67822729  0.68900051  0.31967040
   0.67820837  0.98727958  0.31923871
   0.97736094  0.68886187  0.32199835
   0.27555516  0.28673365  0.32263929
   0.40522945  0.98519257  0.32072390
   0.97852414  0.41761095  0.32189608
   0.54720659  0.55936269  0.31997642
   0.54698465  0.98537863  0.31937031
   0.97852925  0.55915588  0.32195473
   0.40548695  0.41778506  0.32122283
   0.58798990  0.29066401  0.47783840
   0.59912369  0.29791729  0.53202768
   0.66193616  0.44267901  0.44796836
   0.42740201  0.21095841  0.46518063
   0.65952753  0.20856201  0.45021071
unknown system                          
           1
     9.454642    0.001691    0.009879
    -4.730645    8.188525   -0.001521
     1.399969    0.913053   20.012321
   C    H    F 
    19     1     3
Direct configuration=    74
   0.12809905  0.98747291  0.32292069
   0.97685482  0.13896501  0.32193026
   0.82590340  0.83636191  0.32061132
   0.82583977  0.98772983  0.32048662
   0.97686656  0.83621374  0.32203984
   0.12809336  0.13878433  0.32292564
   0.27554284  0.98676950  0.32248757
   0.97732399  0.28664435  0.32190302
   0.67825333  0.68908306  0.31962859
   0.67824308  0.98726463  0.31920339
   0.97735524  0.68894998  0.32197783
   0.27556690  0.28669078  0.32263397
   0.40525236  0.98525413  0.32073026
   0.97846826  0.41752793  0.32185918
   0.54725784  0.55938697  0.31996338
   0.54701806  0.98542352  0.31935400
   0.97848900  0.55920063  0.32191879
   0.40556360  0.41781309  0.32122106
   0.58801678  0.29064553  0.47796064
   0.59905171  0.29789606  0.53214750
   0.66193649  0.44262446  0.44805322
   0.42737248  0.21095218  0.46524112
   0.65952203  0.20857490  0.45028876
unknown system                          
           1
     9.455431    0.001844    0.009006
    -4.730908    8.188354   -0.001451
     1.398254    0.912170   20.010710
   C    H    F 
    19     1     3
Direct configuration=    75
   0.12816779  0.98751121  0.32294503
   0.97686477  0.13892977  0.32195022
   0.82585038  0.83634069  0.32064793
   0.82582821  0.98775932  0.32051717
   0.97689485  0.83624855  0.32205683
   0.12811028  0.13881409  0.32294414
   0.27552410  0.98672997  0.32251332
   0.97733904  0.28671605  0.32192675
   0.67823401  0.68902183  0.31965959
   0.67821733  0.98727571  0.31922959
   0.97735947  0.68888464  0.32199305
   0.27555819  0.28672257  0.32263792
   0.40523537  0.98520848  0.32072555
   0.97850969  0.41758950  0.32188654
   0.54721982  0.55936896  0.31997306
   0.54699327  0.98539023  0.31936609
   0.97851885  0.55916744  0.32194544
   0.40550674  0.41779230  0.32122238
   0.58799687  0.29065925  0.47786999
   0.59910513  0.29791182  0.53205864
   0.66193626  0.44266492  0.44799029
   0.42739439  0.21095681  0.46519626
   0.65952613  0.20856535  0.45023088
unknown system                          
           1
     9.455241    0.001785    0.009319
    -4.730864    8.188514   -0.001512
     1.398884    0.912408   20.010850
   C    H    F 
    19     1     3
Direct configuration=    76
   0.12814739  0.98749326  0.32293238
   0.97685575  0.13891733  0.32194353
   0.82585811  0.83634487  0.32063725
   0.82583470  0.98775011  0.32050716
   0.97688248  0.83624303  0.32204989
   0.12810519  0.13880090  0.32293256
   0.27552439  0.98675206  0.32249729
   0.97733246  0.28671894  0.32191989
   0.67823948  0.68904408  0.31965154
   0.67822053  0.98726932  0.31922540
   0.97735873  0.68888002  0.32199094
   0.27558514  0.28673067  0.32263233
   0.40525146  0.98523082  0.32072497
   0.97848839  0.41757722  0.32187988
   0.54724748  0.55938861  0.31997026
   0.54700845  0.98540617  0.31936347
   0.97850175  0.55917001  0.32193803
   0.40551146  0.41777909  0.32122115
   0.58798994  0.29065048  0.47789710
   0.59909306  0.29790845  0.53208672
   0.66193544  0.44265234  0.44801796
   0.42739860  0.21095831  0.46521216
   0.65952056  0.20856335  0.45025477
unknown system                          
           1
     9.454674    0.001610    0.010256
    -4.730732    8.188991   -0.001697
     1.400764    0.913119   20.011271
   C    H    F 
    19     1     3
Direct configuration=    77
   0.12808649  0.98743969  0.32289463
   0.97682884  0.13888018  0.32192357
   0.82588119  0.83635732  0.32060539
   0.82585409  0.98772262  0.32047729
   0.97684558  0.83622657  0.32202918
   0.12808998  0.13876153  0.32289800
   0.27552526  0.98681800  0.32244946
   0.97731280  0.28672759  0.32189944
   0.67825583  0.68911049  0.31962750
   0.67823008  0.98725024  0.31921290
   0.97735653  0.68886625  0.32198466
   0.27566559  0.28675483  0.32261565
   0.40529950  0.98529750  0.32072324
   0.97842480  0.41754056  0.32186001
   0.54733005  0.55944726  0.31996191
   0.54705373  0.98545373  0.31935563
   0.97845071  0.55917770  0.32191592
   0.40552556  0.41773968  0.32121751
   0.58796925  0.29062431  0.47797799
   0.59905705  0.29789840  0.53217054
   0.66193296  0.44261481  0.44810055
   0.42741114  0.21096279  0.46525963
   0.65950395  0.20855739  0.45032606
unknown system                          
           1
     9.454568    0.001575    0.010477
    -4.730709    8.189150   -0.001754
     1.401214    0.913262   20.011191
   C    H    F 
    19     1     3
Direct configuration=    78
   0.12807689  0.98743107  0.32288448
   0.97682532  0.13886991  0.32191862
   0.82588308  0.83636036  0.32059862
   0.82585799  0.98771853  0.32047047
   0.97683851  0.83622264  0.32202378
   0.12809019  0.13875707  0.32288882
   0.27553423  0.98683379  0.32243633
   0.97730731  0.28673051  0.32189521
   0.67826043  0.68912687  0.31962269
   0.67823208  0.98724514  0.31921118
   0.97735539  0.68886306  0.32198387
   0.27567268  0.28674690  0.32261057
   0.40530388  0.98531527  0.32072198
   0.97840834  0.41754136  0.32185599
   0.54734022  0.55945149  0.31996022
   0.54706359  0.98546603  0.31935422
   0.97843651  0.55916549  0.32191137
   0.40554516  0.41774503  0.32121616
   0.58796060  0.29061730  0.47799539
   0.59904960  0.29789579  0.53218935
   0.66193316  0.44260823  0.44812166
   0.42741566  0.21096394  0.46527161
   0.65950012  0.20855369  0.45034405
unknown system                          
           1
     9.454248    0.001469    0.011143
    -4.730641    8.189626   -0.001925
     1.402566    0.913688   20.010951
   C    H    F 
    19     1     3
Direct configuration=    79
   0.12804811  0.98740521  0.32285405
   0.97681474  0.13883909  0.32190379
   0.82588874  0.83636948  0.32057828
   0.82586971  0.98770625  0.32044999
   0.97681731  0.83621084  0.32200761
   0.12809082  0.13874367  0.32286129
   0.27556112  0.98688113  0.32239692
   0.97729084  0.28673930  0.32188253
   0.67827426  0.68917598  0.31960828
   0.67823807  0.98722982  0.31920602
   0.97735199  0.68885349  0.32198148
   0.27569396  0.28672309  0.32259532
   0.40531705  0.98536860  0.32071821
   0.97835898  0.41754375  0.32184393
   0.54737073  0.55946418  0.31995514
   0.54709315  0.98550293  0.31934999
   0.97839393  0.55912886  0.32189772
   0.40560397  0.41776109  0.32121212
   0.58793464  0.29059628  0.47804761
   0.59902724  0.29788796  0.53224580
   0.66193376  0.44258849  0.44818498
   0.42742923  0.21096739  0.46530756
   0.65948861  0.20854258  0.45039801
unknown system                          
           1
     9.453610    0.001258    0.012475
    -4.730504    8.190579   -0.002268
     1.405269    0.914542   20.010472
   C    H    F 
    19     1     3
Direct configuration=    80
   0.12799057  0.98735350  0.32279319
   0.97679360  0.13877746  0.32187412
   0.82590007  0.83638771  0.32053760
   0.82589315  0.98768170  0.32040905
   0.97677491  0.83618724  0.32197526
   0.12809210  0.13871688  0.32280623
   0.27561493  0.98697581  0.32231811
   0.97725789  0.28675687  0.32185718
   0.67830190  0.68927421  0.31957946
   0.67825006  0.98719918  0.31919570
   0.97734518  0.68883435  0.32197670
   0.27573651  0.28667549  0.32256482
   0.40534337  0.98547525  0.32071068
   0.97826025  0.41754854  0.32181981
   0.54743175  0.55948955  0.31994499
   0.54715229  0.98557673  0.31934152
   0.97830877  0.55905559  0.32187041
   0.40572160  0.41779321  0.32120403
   0.58788270  0.29055424  0.47815206
   0.59898250  0.29787229  0.53235870
   0.66193495  0.44254900  0.44831162
   0.42745635  0.21097429  0.46537945
   0.65946556  0.20852035  0.45050595
unknown system                          
           1
     9.453547    0.001168    0.012984
    -4.730550    8.190899   -0.002424
     1.406330    0.914801   20.010020
   C    H    F 
    19     1     3
Direct configuration=    81
   0.12799066  0.98734961  0.32276778
   0.97679799  0.13878117  0.32186177
   0.82589716  0.83639455  0.32052345
   0.82589821  0.98768105  0.32039433
   0.97677258  0.83617352  0.32196192
   0.12810154  0.13871629  0.32278410
   0.27562722  0.98700747  0.32228656
   0.97724300  0.28675711  0.32184877
   0.67829609  0.68929349  0.31957014
   0.67825148  0.98718766  0.31919353
   0.97733944  0.68882032  0.32197535
   0.27576687  0.28666855  0.32255043
   0.40536715  0.98551918  0.32070517
   0.97821974  0.41753139  0.32181204
   0.54745249  0.55949614  0.31994146
   0.54716312  0.98560675  0.31933942
   0.97827234  0.55903436  0.32186139
   0.40574577  0.41778288  0.32119996
   0.58786440  0.29054132  0.47819212
   0.59896419  0.29786310  0.53239885
   0.66193958  0.44254344  0.44836103
   0.42745965  0.21097334  0.46540847
   0.65946029  0.20850677  0.45054860
unknown system                          
           1
     9.453358    0.000901    0.014512
    -4.730688    8.191861   -0.002892
     1.409511    0.915578   20.008663
   C    H    F 
    19     1     3
Direct configuration=    82
   0.12799095  0.98733796  0.32269154
   0.97681117  0.13879231  0.32182470
   0.82588841  0.83641507  0.32048100
   0.82591338  0.98767910  0.32035019
   0.97676560  0.83613237  0.32192190
   0.12812990  0.13871455  0.32271773
   0.27566409  0.98710243  0.32219188
   0.97719835  0.28675784  0.32182355
   0.67827867  0.68935130  0.31954217
   0.67825574  0.98715310  0.31918701
   0.97732223  0.68877820  0.32197131
   0.27585795  0.28664771  0.32250726
   0.40543850  0.98565098  0.32068864
   0.97809820  0.41747991  0.32178874
   0.54751471  0.55951591  0.31993085
   0.54719562  0.98569680  0.31933313
   0.97816304  0.55897064  0.32183434
   0.40581828  0.41775192  0.32118776
   0.58780950  0.29050256  0.47831233
   0.59890923  0.29783552  0.53251930
   0.66195343  0.44252677  0.44850926
   0.42746952  0.21097047  0.46549551
   0.65944447  0.20846601  0.45067657
unknown system                          
           1
     9.452980    0.000365    0.017567
    -4.730963    8.193786   -0.003829
     1.415874    0.917133   20.005952
   C    H    F 
    19     1     3
Direct configuration=    83
   0.12799160  0.98731468  0.32253906
   0.97683756  0.13881461  0.32175055
   0.82587096  0.83645612  0.32039609
   0.82594375  0.98767520  0.32026190
   0.97675167  0.83605009  0.32184185
   0.12818667  0.13871108  0.32258496
   0.27573792  0.98729235  0.32200252
   0.97710905  0.28675929  0.32177310
   0.67824384  0.68946691  0.31948623
   0.67826426  0.98708398  0.31917396
   0.97728781  0.68869399  0.32196322
   0.27604016  0.28660605  0.32242089
   0.40558119  0.98591454  0.32065557
   0.97785514  0.41737698  0.32174215
   0.54763917  0.55955546  0.31990963
   0.54726061  0.98587690  0.31932053
   0.97794447  0.55884322  0.32178023
   0.40596331  0.41769000  0.32116333
   0.58769959  0.29042502  0.47855277
   0.59879923  0.29778034  0.53276023
   0.66198103  0.44249339  0.44880574
   0.42748920  0.21096473  0.46566961
   0.65941273  0.20838449  0.45093251
unknown system                          
           1
     9.452936    0.000196    0.018417
    -4.731087    8.194289   -0.004137
     1.417651    0.917440   20.005168
   C    H    F 
    19     1     3
Direct configuration=    84
   0.12800609  0.98732469  0.32249443
   0.97686208  0.13885681  0.32172733
   0.82587491  0.83646183  0.32037414
   0.82595559  0.98769102  0.32023939
   0.97675974  0.83603107  0.32181745
   0.12821101  0.13872646  0.32254761
   0.27577370  0.98733567  0.32195044
   0.97708394  0.28673671  0.32176065
   0.67823057  0.68949129  0.31947248
   0.67823013  0.98707024  0.31917116
   0.97727386  0.68868329  0.32195939
   0.27608742  0.28659054  0.32239377
   0.40560767  0.98598959  0.32064251
   0.97778846  0.41732931  0.32173120
   0.54763871  0.55953193  0.31990369
   0.54730573  0.98592989  0.31931833
   0.97788057  0.55880410  0.32176784
   0.40599633  0.41766561  0.32115510
   0.58768200  0.29040726  0.47862193
   0.59876160  0.29775754  0.53282594
   0.66199491  0.44249620  0.44888628
   0.42747847  0.21095668  0.46571977
   0.65940747  0.20836172  0.45100582
unknown system                          
           1
     9.452877   -0.000032    0.019560
    -4.731254    8.194966   -0.004553
     1.420042    0.917852   20.004113
   C    H    F 
    19     1     3
Direct configuration=    85
   0.12802560  0.98733817  0.32243436
   0.97689510  0.13891360  0.32169607
   0.82588023  0.83646953  0.32034460
   0.82597153  0.98771231  0.32020908
   0.97677061  0.83600548  0.32178459
   0.12824377  0.13874716  0.32249733
   0.27582188  0.98739398  0.32188034
   0.97705014  0.28670631  0.32174389
   0.67821271  0.68952410  0.31945398
   0.67818418  0.98705174  0.31916739
   0.97725509  0.68866888  0.32195424
   0.27615103  0.28656966  0.32235727
   0.40564331  0.98609059  0.32062493
   0.97769871  0.41726515  0.32171647
   0.54763810  0.55950026  0.31989570
   0.54736645  0.98600122  0.31931537
   0.97779457  0.55875146  0.32175116
   0.40604079  0.41763277  0.32114403
   0.58765830  0.29038335  0.47871504
   0.59871093  0.29772685  0.53291438
   0.66201356  0.44249998  0.44899468
   0.42746400  0.21094583  0.46578728
   0.65940037  0.20833107  0.45110448
unknown system                          
           1
     9.452759   -0.000487    0.021847
    -4.731589    8.196320   -0.005384
     1.424824    0.918677   20.002004
   C    H    F 
    19     1     3
Direct configuration=    86
   0.12806465  0.98736512  0.32231420
   0.97696114  0.13902719  0.32163354
   0.82589088  0.83648493  0.32028550
   0.82600342  0.98775489  0.32014847
   0.97679238  0.83595429  0.32171888
   0.12830932  0.13878856  0.32239676
   0.27591828  0.98751060  0.32174013
   0.97698255  0.28664553  0.32171037
   0.67817699  0.68958971  0.31941699
   0.67809230  0.98701475  0.31915985
   0.97721754  0.68864008  0.32194393
   0.27627828  0.28652791  0.32228425
   0.40571460  0.98629258  0.32058975
   0.97751922  0.41713683  0.32168702
   0.54763689  0.55943693  0.31987970
   0.54748789  0.98614385  0.31930944
   0.97762258  0.55864617  0.32171781
   0.40612972  0.41756710  0.32112186
   0.58761084  0.29033553  0.47890126
   0.59860954  0.29766546  0.53309129
   0.66205080  0.44250754  0.44921150
   0.42743504  0.21092414  0.46592231
   0.65938610  0.20826977  0.45130183
unknown system                          
           1
     9.452801   -0.000323    0.021021
    -4.731468    8.195831   -0.005084
     1.423097    0.918379   20.002766
   C    H    F 
    19     1     3
Direct configuration=    87
   0.12805052  0.98735538  0.32235760
   0.97693728  0.13898617  0.32165613
   0.82588702  0.83647937  0.32030685
   0.82599189  0.98773951  0.32017036
   0.97678451  0.83597277  0.32174262
   0.12828562  0.13877360  0.32243308
   0.27588343  0.98746848  0.32179078
   0.97700695  0.28666748  0.32172248
   0.67818989  0.68956601  0.31943035
   0.67812548  0.98702811  0.31916257
   0.97723110  0.68865048  0.32194765
   0.27623230  0.28654298  0.32231063
   0.40568885  0.98621963  0.32060246
   0.97758404  0.41718317  0.32169765
   0.54763732  0.55945980  0.31988548
   0.54744403  0.98609234  0.31931158
   0.97768469  0.55868419  0.32172985
   0.40609759  0.41759081  0.32112987
   0.58762802  0.29035280  0.47883399
   0.59864620  0.29768764  0.53302739
   0.66203740  0.44250482  0.44913319
   0.42744553  0.21093198  0.46587354
   0.65939129  0.20829192  0.45123055
unknown system                          
           1
     9.453002   -0.000618    0.022245
    -4.731825    8.196246   -0.005613
     1.425691    0.918570   20.001890
   C    H    F 
    19     1     3
Direct configuration=    88
   0.12808109  0.98738659  0.32228830
   0.97698221  0.13905377  0.32161703
   0.82590968  0.83649009  0.32027719
   0.82601033  0.98778802  0.32014251
   0.97681670  0.83597859  0.32170368
   0.12833186  0.13881681  0.32237892
   0.27592173  0.98751482  0.32171760
   0.97697366  0.28662689  0.32170585
   0.67813223  0.68955243  0.31941347
   0.67813273  0.98702399  0.31915862
   0.97720582  0.68863268  0.32193804
   0.27627580  0.28649898  0.32226638
   0.40577203  0.98632933  0.32057470
   0.97749088  0.41710195  0.32168392
   0.54763141  0.55942136  0.31987693
   0.54743746  0.98617263  0.31931159
   0.97759055  0.55862188  0.32171678
   0.40613696  0.41754807  0.32111442
   0.58761770  0.29033295  0.47893356
   0.59857519  0.29763968  0.53312597
   0.66206434  0.44251770  0.44924801
   0.42741357  0.21091532  0.46595183
   0.65938702  0.20826491  0.45134134
unknown system                          
           1
     9.453303   -0.001061    0.024076
    -4.732358    8.196866   -0.006404
     1.429570    0.918855   20.000581
   C    H    F 
    19     1     3
Direct configuration=    89
   0.12812684  0.98743327  0.32218465
   0.97704943  0.13915487  0.32155855
   0.82594357  0.83650612  0.32023283
   0.82603792  0.98786056  0.32010085
   0.97686487  0.83598729  0.32164546
   0.12840104  0.13888144  0.32229791
   0.27597903  0.98758414  0.32160815
   0.97692388  0.28656618  0.32168099
   0.67804602  0.68953212  0.31938823
   0.67814358  0.98701784  0.31915271
   0.97716802  0.68860606  0.32192366
   0.27634088  0.28643317  0.32220020
   0.40589645  0.98649339  0.32053318
   0.97735155  0.41698048  0.32166340
   0.54762256  0.55936388  0.31986414
   0.54742765  0.98629269  0.31931161
   0.97744975  0.55852869  0.32169724
   0.40619583  0.41748414  0.32109129
   0.58760223  0.29030325  0.47908248
   0.59846895  0.29756796  0.53327343
   0.66210458  0.44253696  0.44941974
   0.42736574  0.21089042  0.46606893
   0.65938058  0.20822452  0.45150704
unknown system                          
           1
     9.453485   -0.001218    0.024850
    -4.732585    8.196725   -0.006844
     1.431220    0.918678   20.000847
   C    H    F 
    19     1     3
Direct configuration=    90
   0.12816366  0.98747212  0.32213361
   0.97707906  0.13915414  0.32152683
   0.82595155  0.83650918  0.32021624
   0.82605979  0.98789536  0.32008868
   0.97689248  0.83603064  0.32161523
   0.12841810  0.13890602  0.32225982
   0.27600043  0.98759652  0.32156417
   0.97691437  0.28656513  0.32167070
   0.67803063  0.68952328  0.31938152
   0.67814251  0.98704020  0.31915090
   0.97714928  0.68857142  0.32191031
   0.27636076  0.28640678  0.32216438
   0.40593185  0.98656272  0.32050347
   0.97729776  0.41695066  0.32165742
   0.54760388  0.55932459  0.31985797
   0.54746600  0.98635166  0.31931338
   0.97738623  0.55847850  0.32169517
   0.40619126  0.41743067  0.32107622
   0.58759527  0.29029370  0.47914449
   0.59839775  0.29751671  0.53334665
   0.66212708  0.44254506  0.44949373
   0.42734922  0.21088585  0.46613024
   0.65938206  0.20821855  0.45158553
unknown system                          
           1
     9.453678   -0.001384    0.025667
    -4.732825    8.196576   -0.007308
     1.432960    0.918490   20.001129
   C    H    F 
    19     1     3
Direct configuration=    91
   0.12820251  0.98751311  0.32207975
   0.97711032  0.13915337  0.32149336
   0.82595997  0.83651240  0.32019873
   0.82608286  0.98793208  0.32007584
   0.97692161  0.83607639  0.32158335
   0.12843611  0.13893195  0.32221962
   0.27602302  0.98760958  0.32151776
   0.97690435  0.28656402  0.32165985
   0.67801440  0.68951396  0.31937443
   0.67814137  0.98706380  0.31914900
   0.97712951  0.68853486  0.32189623
   0.27638174  0.28637893  0.32212659
   0.40596921  0.98663588  0.32047213
   0.97724100  0.41691919  0.32165111
   0.54758416  0.55928313  0.31985145
   0.54750646  0.98641387  0.31931526
   0.97731920  0.55842553  0.32169299
   0.40618643  0.41737424  0.32106031
   0.58758792  0.29028363  0.47920992
   0.59832262  0.29746263  0.53342391
   0.66215080  0.44255360  0.44957180
   0.42733178  0.21088103  0.46619493
   0.65938361  0.20821225  0.45166834
unknown system                          
           1
     9.454063   -0.001716    0.027300
    -4.733304    8.196278   -0.008238
     1.436440    0.918116   20.001692
   C    H    F 
    19     1     3
Direct configuration=    92
   0.12828025  0.98759509  0.32197204
   0.97717286  0.13915182  0.32142641
   0.82597681  0.83651885  0.32016371
   0.82612901  0.98800553  0.32005015
   0.97697990  0.83616788  0.32151958
   0.12847214  0.13898381  0.32213922
   0.27606822  0.98763571  0.32142495
   0.97688429  0.28656180  0.32163814
   0.67798194  0.68949531  0.31936026
   0.67813911  0.98711100  0.31914519
   0.97708998  0.68846175  0.32186806
   0.27642372  0.28632324  0.32205101
   0.40604395  0.98678219  0.32040946
   0.97712749  0.41685625  0.32163848
   0.54754473  0.55920020  0.31983842
   0.54758739  0.98653830  0.31931901
   0.97718513  0.55831961  0.32168865
   0.40617678  0.41726140  0.32102850
   0.58757319  0.29026348  0.47934078
   0.59817231  0.29735448  0.53357842
   0.66219822  0.44257069  0.44972793
   0.42729687  0.21087139  0.46632430
   0.65938667  0.20819965  0.45183397
unknown system                          
           1
     9.454279   -0.001743    0.028031
    -4.733435    8.195882   -0.008715
     1.438013    0.917793   20.002336
   C    H    F 
    19     1     3
Direct configuration=    93
   0.12831507  0.98763109  0.32191965
   0.97719258  0.13914828  0.32139322
   0.82597627  0.83653232  0.32014977
   0.82613523  0.98800752  0.32004092
   0.97700044  0.83618963  0.32148596
   0.12847944  0.13898415  0.32209731
   0.27607549  0.98764251  0.32138228
   0.97688773  0.28656239  0.32162691
   0.67797026  0.68947229  0.31935692
   0.67818180  0.98715362  0.31914424
   0.97707438  0.68846179  0.32184946
   0.27641059  0.28627804  0.32201206
   0.40609238  0.98684897  0.32037197
   0.97707886  0.41683013  0.32163488
   0.54754576  0.55917960  0.31983157
   0.54761240  0.98660040  0.31932106
   0.97712162  0.55827643  0.32169077
   0.40619539  0.41723522  0.32100917
   0.58755541  0.29025638  0.47941130
   0.59808544  0.29729341  0.53365261
   0.66222226  0.44257536  0.44980124
   0.42729037  0.21087236  0.46639030
   0.65939179  0.20819755  0.45191308
unknown system                          
           1
     9.454928   -0.001821    0.030222
    -4.733825    8.194694   -0.010147
     1.442734    0.916824   20.004269
   C    H    F 
    19     1     3
Direct configuration=    94
   0.12841956  0.98773910  0.32176246
   0.97725173  0.13913765  0.32129365
   0.82597466  0.83657271  0.32010797
   0.82615389  0.98801350  0.32001323
   0.97706210  0.83625488  0.32138511
   0.12850135  0.13898518  0.32197157
   0.27609734  0.98766291  0.32125427
   0.97689807  0.28656416  0.32159322
   0.67793521  0.68940322  0.31934688
   0.67830988  0.98728152  0.31914141
   0.97702758  0.68846191  0.32179367
   0.27637120  0.28614243  0.32189522
   0.40623769  0.98704930  0.32025950
   0.97693297  0.41675175  0.32162407
   0.54754885  0.55911778  0.31981101
   0.54768742  0.98678672  0.31932720
   0.97693110  0.55814690  0.32169713
   0.40625122  0.41715668  0.32095118
   0.58750202  0.29023507  0.47962287
   0.59782477  0.29711020  0.53387518
   0.66229435  0.44258937  0.45002117
   0.42727085  0.21087525  0.46658827
   0.65940714  0.20819127  0.45215041
unknown system                          
           1
     9.455021   -0.001749    0.031036
    -4.733809    8.194192   -0.010702
     1.444476    0.916423   20.005322
   C    H    F 
    19     1     3
Direct configuration=    95
   0.12844321  0.98775011  0.32170267
   0.97726183  0.13914337  0.32125628
   0.82596329  0.83657482  0.32009403
   0.82615133  0.98799141  0.32000387
   0.97706973  0.83625603  0.32134302
   0.12849257  0.13895934  0.32191792
   0.27611677  0.98767025  0.32120488
   0.97691548  0.28655344  0.32157892
   0.67795628  0.68939687  0.31934587
   0.67834616  0.98734662  0.31914171
   0.97701370  0.68847516  0.32176731
   0.27638273  0.28613637  0.32184832
   0.40627819  0.98712225  0.32021123
   0.97688210  0.41672372  0.32162221
   0.54755645  0.55909807  0.31980289
   0.54775416  0.98686064  0.31932781
   0.97686065  0.55813497  0.32170196
   0.40625343  0.41711132  0.32092505
   0.58747237  0.29022897  0.47971461
   0.59771320  0.29703548  0.53396131
   0.66232103  0.44258978  0.45010622
   0.42727113  0.21088067  0.46666746
   0.65941515  0.20818980  0.45224109
unknown system                          
           1
     9.455301   -0.001535    0.033481
    -4.733761    8.192686   -0.012368
     1.449701    0.915220   20.008485
   C    H    F 
    19     1     3
Direct configuration=    96
   0.12851419  0.98778313  0.32152327
   0.97729214  0.13916054  0.32114418
   0.82592918  0.83658113  0.32005222
   0.82614364  0.98792514  0.31997580
   0.97709265  0.83625948  0.32121677
   0.12846625  0.13888181  0.32175698
   0.27617510  0.98769224  0.32105672
   0.97696774  0.28652126  0.32153601
   0.67801948  0.68937779  0.31934284
   0.67845501  0.98754192  0.31914261
   0.97697211  0.68851493  0.32168823
   0.27641732  0.28611818  0.32170763
   0.40639972  0.98734109  0.32006642
   0.97672948  0.41663960  0.32161663
   0.54757926  0.55903894  0.31977854
   0.54795441  0.98708244  0.31932965
   0.97664930  0.55809917  0.32171643
   0.40626009  0.41697523  0.32084665
   0.58738338  0.29021070  0.47998981
   0.59737842  0.29681135  0.53421972
   0.66240101  0.44259104  0.45036136
   0.42727195  0.21089695  0.46690505
   0.65943914  0.20818539  0.45251313
unknown system                          
           1
     9.455130   -0.001329    0.034188
    -4.733497    8.192370   -0.012825
     1.451188    0.914975   20.009469
   C    H    F 
    19     1     3
Direct configuration=    97
   0.12848850  0.98771529  0.32147370
   0.97727479  0.13914080  0.32111657
   0.82593100  0.83655625  0.32004302
   0.82613350  0.98791013  0.31996757
   0.97707023  0.83625006  0.32117780
   0.12846174  0.13886247  0.32170127
   0.27619487  0.98770260  0.32101227
   0.97700022  0.28654212  0.32151995
   0.67803718  0.68935603  0.31934706
   0.67850799  0.98760920  0.31914574
   0.97696355  0.68854232  0.32165784
   0.27639983  0.28611917  0.32166482
   0.40646626  0.98739756  0.32002056
   0.97669655  0.41662210  0.32161886
   0.54761327  0.55904278  0.31977143
   0.54798202  0.98715005  0.31932478
   0.97659806  0.55809613  0.32172264
   0.40630534  0.41699016  0.32081712
   0.58736418  0.29020610  0.48007354
   0.59727284  0.29675168  0.53430078
   0.66241423  0.44257919  0.45044131
   0.42727468  0.21090334  0.46697613
   0.65944012  0.20818392  0.45259187
unknown system                          
           1
     9.454884   -0.001034    0.035207
    -4.733117    8.191916   -0.013483
     1.453329    0.914623   20.010886
   C    H    F 
    19     1     3
Direct configuration=    98
   0.12845153  0.98761762  0.32140233
   0.97724983  0.13911237  0.32107682
   0.82593363  0.83652042  0.32002978
   0.82611890  0.98788853  0.31995573
   0.97703796  0.83623650  0.32112168
   0.12845527  0.13883462  0.32162106
   0.27622336  0.98771751  0.32094827
   0.97704699  0.28657216  0.32149684
   0.67806266  0.68932469  0.31935313
   0.67858425  0.98770607  0.31915025
   0.97695123  0.68858176  0.32161411
   0.27637466  0.28612059  0.32160319
   0.40656208  0.98747886  0.31995453
   0.97664913  0.41659691  0.32162208
   0.54766223  0.55904831  0.31976121
   0.54802177  0.98724739  0.31931778
   0.97652427  0.55809174  0.32173158
   0.40637050  0.41701165  0.32077460
   0.58733653  0.29019948  0.48019409
   0.59712081  0.29666578  0.53441748
   0.66243326  0.44256212  0.45055641
   0.42727861  0.21091255  0.46707846
   0.65944151  0.20818181  0.45270524
unknown system                          
           1
     9.454392   -0.000442    0.037244
    -4.732356    8.191006   -0.014800
     1.457611    0.913919   20.013722
   C    H    F 
    19     1     3
Direct configuration=    99
   0.12837762  0.98742227  0.32125959
   0.97719991  0.13905551  0.32099734
   0.82593889  0.83644875  0.32000329
   0.82608970  0.98784532  0.31993206
   0.97697345  0.83620936  0.32100947
   0.12844234  0.13877892  0.32146065
   0.27628035  0.98774732  0.32082029
   0.97714055  0.28663225  0.32145061
   0.67811362  0.68926201  0.31936527
   0.67873677  0.98789981  0.31915925
   0.97692662  0.68866064  0.32152664
   0.27632435  0.28612343  0.32147993
   0.40675375  0.98764146  0.31982248
   0.97655429  0.41654653  0.32162851
   0.54776016  0.55905936  0.31974075
   0.54810128  0.98744208  0.31930377
   0.97637669  0.55808298  0.32174948
   0.40650082  0.41705463  0.32068957
   0.58728117  0.29018627  0.48043517
   0.59681669  0.29649399  0.53465087
   0.66247126  0.44252799  0.45078658
   0.42728643  0.21093098  0.46728312
   0.65944425  0.20817761  0.45293195
unknown system                          
           1
     9.454679   -0.000788    0.036054
    -4.732800    8.191537   -0.014031
     1.455110    0.914330   20.012066
   C    H    F 
    19     1     3
Direct configuration=   100
   0.12842074  0.98753635  0.32134293
   0.97722904  0.13908872  0.32104374
   0.82593581  0.83649060  0.32001876
   0.82610674  0.98787055  0.31994588
   0.97701109  0.83622521  0.32107498
   0.12844985  0.13881146  0.32155430
   0.27624704  0.98772992  0.32089501
   0.97708591  0.28659717  0.32147760
   0.67808386  0.68929861  0.31935819
   0.67864772  0.98778668  0.31915400
   0.97694097  0.68861458  0.32157770
   0.27635370  0.28612178  0.32155189
   0.40664181  0.98754653  0.31989958
   0.97660967  0.41657595  0.32162475
   0.54770297  0.55905292  0.31975270
   0.54805485  0.98732840  0.31931195
   0.97646287  0.55808809  0.32173902
   0.40642470  0.41702954  0.32073922
   0.58731355  0.29019397  0.48029442
   0.59699432  0.29659428  0.53451460
   0.66244912  0.44254791  0.45065221
   0.42728191  0.21092020  0.46716364
   0.65944270  0.20818005  0.45279959
unknown system                          
           1
     9.454423   -0.000473    0.036762
    -4.732399    8.191294   -0.014446
     1.456596    0.914220   20.012926
   C    H    F 
    19     1     3
Direct configuration=   101
   0.12839560  0.98746711  0.32129565
   0.97721578  0.13906831  0.32102060
   0.82593001  0.83646084  0.32001109
   0.82610023  0.98786119  0.31993798
   0.97698118  0.83621095  0.32103902
   0.12844697  0.13879060  0.32149740
   0.27627869  0.98773422  0.32085031
   0.97712123  0.28661454  0.32146032
   0.67812336  0.68929174  0.31936490
   0.67866622  0.98784988  0.31915859
   0.97693099  0.68861510  0.32154537
   0.27636542  0.28616737  0.32150825
   0.40667515  0.98759707  0.31985523
   0.97658712  0.41659089  0.32162892
   0.54772701  0.55904336  0.31974571
   0.54811829  0.98739644  0.31930253
   0.97642396  0.55808557  0.32174483
   0.40643720  0.41702146  0.32070741
   0.58729989  0.29018470  0.48037055
   0.59689363  0.29654513  0.53459831
   0.66245417  0.44253094  0.45073454
   0.42727919  0.21092492  0.46723238
   0.65943968  0.20817713  0.45287676
unknown system                          
           1
     9.454051   -0.000017    0.037789
    -4.731817    8.190941   -0.015048
     1.458752    0.914061   20.014173
   C    H    F 
    19     1     3
Direct configuration=   102
   0.12835914  0.98736667  0.32122706
   0.97719654  0.13903871  0.32098702
   0.82592159  0.83641765  0.31999997
   0.82609079  0.98784759  0.31992651
   0.97693779  0.83619026  0.32098685
   0.12844281  0.13876033  0.32141486
   0.27632461  0.98774046  0.32078546
   0.97717247  0.28663973  0.32143523
   0.67818067  0.68928177  0.31937463
   0.67869305  0.98794158  0.31916524
   0.97691651  0.68861585  0.32149848
   0.27638243  0.28623351  0.32144496
   0.40672354  0.98767039  0.31979090
   0.97655439  0.41661258  0.32163498
   0.54776187  0.55902949  0.31973557
   0.54821033  0.98749515  0.31928886
   0.97636750  0.55808191  0.32175326
   0.40645533  0.41700973  0.32066126
   0.58728006  0.29017127  0.48048100
   0.59674755  0.29647382  0.53471975
   0.66246147  0.44250632  0.45085399
   0.42727522  0.21093177  0.46733210
   0.65943530  0.20817289  0.45298870
unknown system                          
           1
     9.454098    0.000298    0.038143
    -4.731567    8.190791   -0.015209
     1.459540    0.914151   20.014117
   C    H    F 
    19     1     3
Direct configuration=   103
   0.12836804  0.98736906  0.32120512
   0.97720575  0.13903516  0.32098038
   0.82590961  0.83642291  0.31999701
   0.82608943  0.98784807  0.31992323
   0.97693187  0.83617499  0.32097277
   0.12845769  0.13875612  0.32138693
   0.27631878  0.98772799  0.32076183
   0.97718808  0.28666427  0.32142573
   0.67818750  0.68926092  0.31938089
   0.67870809  0.98796089  0.31916910
   0.97690610  0.68859092  0.32148079
   0.27637635  0.28625755  0.32142115
   0.40673406  0.98768647  0.31977195
   0.97655702  0.41662474  0.32163911
   0.54777285  0.55902142  0.31973236
   0.54822887  0.98753080  0.31927775
   0.97636565  0.55807239  0.32175437
   0.40645289  0.41700978  0.32064247
   0.58727476  0.29015811  0.48051472
   0.59670674  0.29646406  0.53476284
   0.66245668  0.44249757  0.45089798
   0.42726293  0.21092954  0.46736284
   0.65943122  0.20816573  0.45302531
unknown system                          
           1
     9.454236    0.001242    0.039207
    -4.730818    8.190340   -0.015692
     1.461906    0.914420   20.013950
   C    H    F 
    19     1     3
Direct configuration=   104
   0.12839475  0.98737622  0.32113929
   0.97723340  0.13902451  0.32096047
   0.82587367  0.83643868  0.31998813
   0.82608536  0.98784949  0.31991340
   0.97691412  0.83612916  0.32093052
   0.12850234  0.13874347  0.32130314
   0.27630129  0.98769058  0.32069095
   0.97723490  0.28673787  0.32139724
   0.67820801  0.68919835  0.31939968
   0.67875321  0.98801883  0.31918065
   0.97687489  0.68851612  0.32142775
   0.27635810  0.28632967  0.32134973
   0.40676563  0.98773468  0.31971507
   0.97656489  0.41666121  0.32165151
   0.54780577  0.55899723  0.31972275
   0.54828452  0.98763773  0.31924442
   0.97636007  0.55804386  0.32175771
   0.40644558  0.41700995  0.32058608
   0.58725885  0.29011864  0.48061590
   0.59658429  0.29643476  0.53489212
   0.66244231  0.44247131  0.45102995
   0.42722605  0.21092286  0.46745505
   0.65941896  0.20814427  0.45313514
unknown system                          
           1
     9.454513    0.003131    0.041335
    -4.729320    8.189439   -0.016658
     1.466637    0.914959   20.013617
   C    H    F 
    19     1     3
Direct configuration=   105
   0.12844820  0.98739056  0.32100764
   0.97728870  0.13900320  0.32092064
   0.82580180  0.83647022  0.31997037
   0.82607722  0.98785233  0.31989374
   0.97687866  0.83603751  0.32084603
   0.12859168  0.13871818  0.32113554
   0.27626635  0.98761576  0.32054918
   0.97732855  0.28688508  0.32134024
   0.67824902  0.68907320  0.31943726
   0.67884344  0.98813471  0.31920376
   0.97681250  0.68836653  0.32132165
   0.27632164  0.28647393  0.32120689
   0.40682880  0.98783112  0.31960133
   0.97658062  0.41673416  0.32167630
   0.54787161  0.55894883  0.31970350
   0.54839581  0.98785160  0.31917775
   0.97634893  0.55798678  0.32176439
   0.40643099  0.41701028  0.32047331
   0.58722698  0.29003968  0.48081825
   0.59633933  0.29637618  0.53515070
   0.66241350  0.44241879  0.45129390
   0.42715225  0.21090950  0.46763947
   0.65939439  0.20810133  0.45335481
unknown system                          
           1
     9.454322    0.001828    0.039867
    -4.730354    8.190061   -0.015992
     1.463373    0.914587   20.013847
   C    H    F 
    19     1     3
Direct configuration=   106
   0.12841127  0.98738067  0.32109849
   0.97725053  0.13901791  0.32094813
   0.82585138  0.83644844  0.31998262
   0.82608283  0.98785037  0.31990730
   0.97690309  0.83610075  0.32090433
   0.12852998  0.13873564  0.32125120
   0.27629040  0.98766738  0.32064701
   0.97726392  0.28678351  0.32137957
   0.67822073  0.68915957  0.31941134
   0.67878121  0.98805476  0.31918782
   0.97685549  0.68846975  0.32139486
   0.27634676  0.28637436  0.32130545
   0.40678518  0.98776457  0.31967982
   0.97656978  0.41668382  0.32165919
   0.54782617  0.55898224  0.31971679
   0.54831902  0.98770402  0.31922375
   0.97635661  0.55802617  0.32175978
   0.40644101  0.41701004  0.32055112
   0.58724904  0.29009417  0.48067862
   0.59650843  0.29641658  0.53497226
   0.66243347  0.44245504  0.45111177
   0.42720324  0.21091872  0.46751221
   0.65941142  0.20813097  0.45320323
unknown system                          
           1
     9.454459    0.002073    0.040336
    -4.730210    8.190110   -0.016159
     1.464412    0.914808   20.013222
   C    H    F 
    19     1     3
Direct configuration=   107
   0.12842342  0.98738703  0.32106784
   0.97727525  0.13903671  0.32094045
   0.82584251  0.83644889  0.31997964
   0.82609735  0.98787431  0.31990519
   0.97690724  0.83609161  0.32088808
   0.12855241  0.13875406  0.32121658
   0.27628050  0.98763889  0.32061220
   0.97728068  0.28677792  0.32136794
   0.67822625  0.68913185  0.31942121
   0.67877565  0.98807257  0.31919330
   0.97683663  0.68846206  0.32137035
   0.27631359  0.28638454  0.32126921
   0.40679071  0.98778021  0.31965662
   0.97658597  0.41669039  0.32166578
   0.54782408  0.55895407  0.31971251
   0.54835152  0.98775229  0.31920366
   0.97636895  0.55800430  0.32175904
   0.40645245  0.41703493  0.32052327
   0.58722775  0.29006924  0.48073183
   0.59645963  0.29641143  0.53502628
   0.66242360  0.44244688  0.45117309
   0.42718985  0.21091607  0.46755179
   0.65940496  0.20810920  0.45325078
unknown system                          
           1
     9.454844    0.002763    0.041652
    -4.729805    8.190246   -0.016630
     1.467332    0.915428   20.011469
   C    H    F 
    19     1     3
Direct configuration=   108
   0.12845754  0.98740490  0.32098179
   0.97734465  0.13908948  0.32091889
   0.82581759  0.83645014  0.31997130
   0.82613812  0.98794152  0.31989927
   0.97691892  0.83606594  0.32084246
   0.12861541  0.13880580  0.32111940
   0.27625270  0.98755891  0.32051446
   0.97732773  0.28676223  0.32133527
   0.67824174  0.68905403  0.31944892
   0.67876006  0.98812259  0.31920872
   0.97678367  0.68844046  0.32130153
   0.27622048  0.28641310  0.32116747
   0.40680625  0.98782413  0.31959147
   0.97663142  0.41670885  0.32168427
   0.54781821  0.55887499  0.31970049
   0.54844279  0.98788781  0.31914726
   0.97640359  0.55794293  0.32175696
   0.40648457  0.41710482  0.32044506
   0.58716797  0.28999921  0.48088124
   0.59632262  0.29639697  0.53517795
   0.66239586  0.44242397  0.45134525
   0.42715225  0.21090862  0.46766295
   0.65938682  0.20804808  0.45338427
unknown system                          
           1
     9.455010    0.002861    0.042000
    -4.729803    8.190292   -0.016743
     1.468105    0.915602   20.010950
   C    H    F 
    19     1     3
Direct configuration=   109
   0.12846396  0.98740772  0.32095841
   0.97736091  0.13910475  0.32091277
   0.82581470  0.83644781  0.31996959
   0.82614865  0.98796211  0.31989888
   0.97692530  0.83606901  0.32083081
   0.12862810  0.13882163  0.32109524
   0.27624335  0.98753519  0.32048788
   0.97733932  0.28675473  0.32132754
   0.67824316  0.68903417  0.31945647
   0.67876379  0.98813482  0.31921240
   0.97676956  0.68842667  0.32128351
   0.27621376  0.28643704  0.32113891
   0.40681366  0.98783410  0.31957473
   0.97664809  0.41669765  0.32168910
   0.54782155  0.55885983  0.31969735
   0.54845530  0.98792237  0.31913144
   0.97641760  0.55794739  0.32175531
   0.40647174  0.41710439  0.32042368
   0.58714712  0.28998059  0.48092216
   0.59628814  0.29639392  0.53521707
   0.66238696  0.44241692  0.45139138
   0.42714626  0.21090740  0.46769225
   0.65937996  0.20802925  0.45341979
unknown system                          
           1
     9.455508    0.003157    0.043042
    -4.729796    8.190430   -0.017082
     1.470425    0.916127   20.009393
   C    H    F 
    19     1     3
Direct configuration=   110
   0.12848324  0.98741619  0.32088825
   0.97740972  0.13915054  0.32089439
   0.82580601  0.83644081  0.31996447
   0.82618025  0.98802388  0.31989769
   0.97694445  0.83607821  0.32079585
   0.12866617  0.13886912  0.32102277
   0.27621531  0.98746403  0.32040813
   0.97737410  0.28673223  0.32130437
   0.67824742  0.68897459  0.31947913
   0.67877499  0.98817152  0.31922343
   0.97672725  0.68838531  0.32122945
   0.27619359  0.28650888  0.32105324
   0.40683590  0.98786400  0.31952450
   0.97669811  0.41666405  0.32170359
   0.54783158  0.55881436  0.31968794
   0.54849283  0.98802606  0.31908397
   0.97645961  0.55796078  0.32175036
   0.40643326  0.41710310  0.32035952
   0.58708456  0.28992472  0.48104494
   0.59618467  0.29638478  0.53533443
   0.66236026  0.44239578  0.45152974
   0.42712829  0.21090374  0.46778016
   0.65935940  0.20797277  0.45352633
unknown system                          
           1
     9.456503    0.003748    0.045128
    -4.729782    8.190705   -0.017760
     1.475065    0.917177   20.006280
   C    H    F 
    19     1     3
Direct configuration=   111
   0.12852182  0.98743313  0.32074792
   0.97750733  0.13924213  0.32085763
   0.82578864  0.83642682  0.31995424
   0.82624345  0.98814742  0.31989531
   0.97698275  0.83609663  0.32072593
   0.12874234  0.13896410  0.32087782
   0.27615926  0.98732173  0.32024862
   0.97744367  0.28668724  0.32125801
   0.67825592  0.68885543  0.31952444
   0.67879737  0.98824491  0.31924550
   0.97664267  0.68830258  0.32112132
   0.27615332  0.28665257  0.32088190
   0.40688040  0.98792382  0.31942403
   0.97679813  0.41659686  0.32173256
   0.54785163  0.55872341  0.31966912
   0.54856792  0.98823345  0.31898902
   0.97654363  0.55798755  0.32174046
   0.40635634  0.41710053  0.32023120
   0.58695936  0.28981297  0.48129051
   0.59597768  0.29636647  0.53556918
   0.66230679  0.44235348  0.45180650
   0.42709229  0.21089642  0.46795598
   0.65931821  0.20785979  0.45373944
unknown system                          
           1
     9.455972    0.003433    0.044017
    -4.729790    8.190558   -0.017399
     1.472593    0.916618   20.007939
   C    H    F 
    19     1     3
Direct configuration=   112
   0.12850122  0.98742409  0.32082270
   0.97745532  0.13919334  0.32087722
   0.82579789  0.83643427  0.31995969
   0.82620979  0.98808160  0.31989658
   0.97696232  0.83608681  0.32076319
   0.12870172  0.13891349  0.32095506
   0.27618907  0.98739753  0.32033362
   0.97740660  0.28671121  0.32128272
   0.67825140  0.68891892  0.31950030
   0.67878546  0.98820581  0.31923374
   0.97668770  0.68834664  0.32117893
   0.27617472  0.28657600  0.32097320
   0.40685666  0.98789194  0.31947757
   0.97674486  0.41663266  0.32171713
   0.54784094  0.55877186  0.31967916
   0.54852789  0.98812296  0.31903961
   0.97649887  0.55797329  0.32174574
   0.40639728  0.41710189  0.32029957
   0.58702613  0.28987252  0.48115965
   0.59608802  0.29637623  0.53544408
   0.66233536  0.44237604  0.45165902
   0.42711152  0.21090033  0.46786229
   0.65934022  0.20791999  0.45362588
unknown system                          
           1
     9.456055    0.003356    0.044069
    -4.729897    8.190492   -0.017424
     1.472709    0.916598   20.008028
   C    H    F 
    19     1     3
Direct configuration=   113
   0.12849653  0.98742358  0.32081861
   0.97744161  0.13917038  0.32087391
   0.82581043  0.83643654  0.31996130
   0.82619908  0.98806855  0.31989986
   0.97695947  0.83610342  0.32076169
   0.12869100  0.13890663  0.32095624
   0.27619247  0.98739546  0.32032888
   0.97740721  0.28671657  0.32128503
   0.67825032  0.68892684  0.31950096
   0.67879479  0.98820995  0.31923212
   0.97669221  0.68834211  0.32117892
   0.27619113  0.28658579  0.32096599
   0.40685214  0.98788985  0.31947549
   0.97675677  0.41663202  0.32171715
   0.54784785  0.55878112  0.31967837
   0.54852639  0.98812171  0.31903780
   0.97651005  0.55798843  0.32174264
   0.40638623  0.41709506  0.32029552
   0.58701771  0.28987427  0.48116032
   0.59608645  0.29637190  0.53544980
   0.66233175  0.44237054  0.45166521
   0.42712007  0.21089950  0.46786614
   0.65932929  0.20791923  0.45363471
unknown system                          
           1
     9.456279    0.003148    0.044212
    -4.730190    8.190312   -0.017491
     1.473024    0.916544   20.008272
   C    H    F 
    19     1     3
Direct configuration=   114
   0.12848378  0.98742221  0.32080751
   0.97740436  0.13910800  0.32086489
   0.82584453  0.83644270  0.31996566
   0.82617000  0.98803307  0.31990877
   0.97695170  0.83614854  0.32075760
   0.12866187  0.13888798  0.32095944
   0.27620170  0.98738984  0.32031601
   0.97740888  0.28673115  0.32129131
   0.67824738  0.68894837  0.31950275
   0.67882016  0.98822119  0.31922772
   0.97670447  0.68832981  0.32117889
   0.27623573  0.28661239  0.32094640
   0.40683985  0.98788416  0.31946985
   0.97678915  0.41663027  0.32171720
   0.54786662  0.55880629  0.31967625
   0.54852232  0.98811830  0.31903286
   0.97654046  0.55802959  0.32173419
   0.40635620  0.41707651  0.32028451
   0.58699482  0.28987902  0.48116215
   0.59608217  0.29636012  0.53546534
   0.66232191  0.44235559  0.45168204
   0.42714332  0.21089723  0.46787661
   0.65929959  0.20791715  0.45365870
unknown system                          
           1
     9.456371    0.003066    0.044259
    -4.730306    8.190256   -0.017521
     1.473131    0.916504   20.008323
   C    H    F 
    19     1     3
Direct configuration=   115
   0.12848150  0.98742472  0.32080374
   0.97738935  0.13908692  0.32086131
   0.82585606  0.83644507  0.31996807
   0.82615927  0.98801542  0.31991282
   0.97694941  0.83616073  0.32075637
   0.12865098  0.13888144  0.32096197
   0.27619938  0.98738826  0.32031113
   0.97740852  0.28672592  0.32129482
   0.67824853  0.68896144  0.31950332
   0.67881979  0.98822468  0.31922529
   0.97671091  0.68834160  0.32117990
   0.27623520  0.28660208  0.32093857
   0.40684009  0.98788076  0.31946785
   0.97680450  0.41664239  0.32171698
   0.54786734  0.55881200  0.31967540
   0.54852665  0.98811422  0.31903133
   0.97655483  0.55803321  0.32173013
   0.40636474  0.41708984  0.32027999
   0.58698715  0.28988203  0.48116475
   0.59608165  0.29635449  0.53546925
   0.66231931  0.44235270  0.45168644
   0.42714967  0.21089364  0.46787933
   0.65928613  0.20791591  0.45366790
unknown system                          
           1
     9.456644    0.002822    0.044402
    -4.730654    8.190088   -0.017612
     1.473451    0.916386   20.008475
   C    H    F 
    19     1     3
Direct configuration=   116
   0.12847468  0.98743227  0.32079244
   0.97734432  0.13902366  0.32085054
   0.82589062  0.83645218  0.31997529
   0.82612709  0.98796248  0.31992495
   0.97694255  0.83619732  0.32075268
   0.12861832  0.13886181  0.32096955
   0.27619243  0.98738352  0.32029648
   0.97740743  0.28671021  0.32130536
   0.67825199  0.68900066  0.31950504
   0.67881866  0.98823515  0.31921802
   0.97673026  0.68837699  0.32118295
   0.27623360  0.28657115  0.32091507
   0.40684079  0.98787056  0.31946182
   0.97685057  0.41667875  0.32171634
   0.54786951  0.55882911  0.31967285
   0.54853965  0.98810197  0.31902675
   0.97659793  0.55804406  0.32171793
   0.40639034  0.41712983  0.32026643
   0.58696412  0.28989106  0.48117253
   0.59608008  0.29633760  0.53548098
   0.66231148  0.44234404  0.45169963
   0.42716875  0.21088286  0.46788749
   0.65924575  0.20791220  0.45369552
unknown system                          
           1
     9.456751    0.002727    0.044458
    -4.730791    8.190022   -0.017648
     1.473576    0.916340   20.008534
   C    H    F 
    19     1     3
Direct configuration=   117
   0.12847201  0.98743524  0.32078801
   0.97732666  0.13899884  0.32084632
   0.82590418  0.83645497  0.31997812
   0.82611447  0.98794172  0.31992971
   0.97693987  0.83621168  0.32075124
   0.12860551  0.13885411  0.32097252
   0.27618970  0.98738166  0.32029074
   0.97740701  0.28670405  0.32130950
   0.67825335  0.68901604  0.31950571
   0.67881822  0.98823926  0.31921516
   0.97673785  0.68839087  0.32118415
   0.27623297  0.28655901  0.32090585
   0.40684107  0.98786656  0.31945945
   0.97686864  0.41669301  0.32171609
   0.54787036  0.55883583  0.31967185
   0.54854475  0.98809716  0.31902495
   0.97661484  0.55804832  0.32171315
   0.40640039  0.41714551  0.32026112
   0.58695509  0.28989461  0.48117559
   0.59607947  0.29633098  0.53548558
   0.66230842  0.44234064  0.45170480
   0.42717623  0.21087864  0.46789069
   0.65922990  0.20791075  0.45370635
unknown system                          
           1
     9.456894    0.002679    0.044505
    -4.730904    8.189907   -0.017689
     1.473693    0.916272   20.008576
   C    H    F 
    19     1     3
Direct configuration=   118
   0.12847750  0.98744427  0.32078431
   0.97731180  0.13899176  0.32084365
   0.82589738  0.83645091  0.31998237
   0.82610306  0.98792356  0.31993441
   0.97694678  0.83620827  0.32075032
   0.12859744  0.13884851  0.32097520
   0.27618831  0.98738172  0.32028412
   0.97740339  0.28669230  0.32131492
   0.67825437  0.68903162  0.31950655
   0.67881871  0.98823769  0.31921161
   0.97674821  0.68840694  0.32118633
   0.27623663  0.28654968  0.32089550
   0.40684130  0.98786126  0.31945672
   0.97689321  0.41669921  0.32171542
   0.54787556  0.55885176  0.31967028
   0.54853642  0.98808789  0.31902355
   0.97663841  0.55807083  0.32170722
   0.40639768  0.41714922  0.32025474
   0.58695167  0.28989839  0.48118753
   0.59607904  0.29632378  0.53548709
   0.66230905  0.44234801  0.45170657
   0.42716995  0.21086653  0.46789177
   0.65921510  0.20790533  0.45371647
unknown system                          
           1
     9.457323    0.002535    0.044645
    -4.731242    8.189563   -0.017815
     1.474041    0.916067   20.008700
   C    H    F 
    19     1     3
Direct configuration=   119
   0.12849398  0.98747137  0.32077324
   0.97726721  0.13897051  0.32083563
   0.82587698  0.83643875  0.31999511
   0.82606881  0.98786910  0.31994849
   0.97696750  0.83619804  0.32074759
   0.12857323  0.13883174  0.32098325
   0.27618416  0.98738190  0.32026426
   0.97739254  0.28665703  0.32133118
   0.67825744  0.68907836  0.31950907
   0.67882018  0.98823299  0.31920094
   0.97677930  0.68845515  0.32119287
   0.27624760  0.28652167  0.32086443
   0.40684199  0.98784539  0.31944854
   0.97696690  0.41671780  0.32171342
   0.54789115  0.55889956  0.31966557
   0.54851143  0.98806007  0.31901936
   0.97670913  0.55813836  0.32168944
   0.40638956  0.41716034  0.32023562
   0.58694140  0.28990974  0.48122334
   0.59607774  0.29630217  0.53549163
   0.66231096  0.44237012  0.45171185
   0.42715109  0.21083022  0.46789499
   0.65917067  0.20788908  0.45374685
unknown system                          
           1
     9.457300    0.002497    0.044667
    -4.731263    8.189516   -0.017833
     1.474080    0.916036   20.008913
   C    H    F 
    19     1     3
Direct configuration=   120
   0.12850047  0.98747203  0.32077117
   0.97726794  0.13897515  0.32083800
   0.82586805  0.83642993  0.32000145
   0.82606462  0.98787308  0.31995108
   0.97697486  0.83619191  0.32074779
   0.12856861  0.13883554  0.32098267
   0.27620311  0.98738750  0.32025549
   0.97738389  0.28665690  0.32133740
   0.67825249  0.68908602  0.31951079
   0.67880228  0.98821959  0.31919731
   0.97679400  0.68845912  0.32119528
   0.27626282  0.28652775  0.32085340
   0.40682042  0.98783733  0.31944459
   0.97700094  0.41673326  0.32171195
   0.54787738  0.55890278  0.31966305
   0.54850806  0.98804594  0.31901774
   0.97674375  0.55815709  0.32168214
   0.40637900  0.41715744  0.32022681
   0.58693626  0.28990949  0.48122965
   0.59607679  0.29629762  0.53549892
   0.66231013  0.44238019  0.45171404
   0.42713717  0.21081523  0.46789727
   0.65915791  0.20787854  0.45375866
unknown system                          
           1
     9.457269    0.002446    0.044697
    -4.731292    8.189452   -0.017858
     1.474133    0.915995   20.009201
   C    H    F 
    19     1     3
Direct configuration=   121
   0.12850921  0.98747291  0.32076839
   0.97726893  0.13898142  0.32084120
   0.82585600  0.83641804  0.32000999
   0.82605896  0.98787845  0.31995458
   0.97698478  0.83618364  0.32074806
   0.12856238  0.13884068  0.32098189
   0.27622869  0.98739505  0.32024366
   0.97737222  0.28665672  0.32134581
   0.67824581  0.68909637  0.31951312
   0.67877813  0.98820150  0.31919241
   0.97681385  0.68846447  0.32119853
   0.27628336  0.28653595  0.32083852
   0.40679131  0.98782646  0.31943926
   0.97704686  0.41675412  0.32170997
   0.54785881  0.55890713  0.31965966
   0.54850350  0.98802688  0.31901555
   0.97679046  0.55818236  0.32167229
   0.40636476  0.41715352  0.32021493
   0.58692933  0.28990916  0.48123816
   0.59607550  0.29629150  0.53550876
   0.66230901  0.44239377  0.45171699
   0.42711839  0.21079500  0.46790035
   0.65914070  0.20786434  0.45377460
unknown system                          
           1
     9.457251    0.002429    0.044702
    -4.731298    8.189434   -0.017860
     1.474137    0.915990   20.009305
   C    H    F 
    19     1     3
Direct configuration=   122
   0.12851230  0.98747230  0.32076745
   0.97727054  0.13898503  0.32084344
   0.82585419  0.83641627  0.32001355
   0.82605819  0.98788278  0.31995566
   0.97698800  0.83618158  0.32074853
   0.12856258  0.13884385  0.32098087
   0.27623035  0.98739914  0.32023877
   0.97736766  0.28665710  0.32134918
   0.67823831  0.68909500  0.31951419
   0.67877058  0.98819262  0.31919056
   0.97682219  0.68846520  0.32119956
   0.27628590  0.28653467  0.32083257
   0.40679086  0.98782200  0.31943688
   0.97706591  0.41676597  0.32170914
   0.54785091  0.55890914  0.31965805
   0.54849477  0.98801849  0.31901471
   0.97681048  0.55818954  0.32166834
   0.40636407  0.41715721  0.32020971
   0.58692562  0.28990848  0.48124042
   0.59607461  0.29628984  0.53551341
   0.66230732  0.44239747  0.45171862
   0.42711101  0.21078757  0.46790193
   0.65913461  0.20785820  0.45378108
unknown system                          
           1
     9.457196    0.002377    0.044715
    -4.731316    8.189381   -0.017865
     1.474150    0.915976   20.009618
   C    H    F 
    19     1     3
Direct configuration=   123
   0.12852155  0.98747047  0.32076465
   0.97727540  0.13899587  0.32085016
   0.82584873  0.83641097  0.32002423
   0.82605589  0.98789575  0.31995892
   0.97699766  0.83617539  0.32074995
   0.12856317  0.13885336  0.32097783
   0.27623534  0.98741142  0.32022412
   0.97735395  0.28665825  0.32135931
   0.67821580  0.68909091  0.31951741
   0.67874795  0.98816598  0.31918501
   0.97684721  0.68846738  0.32120266
   0.27629351  0.28653083  0.32081472
   0.40678951  0.98780862  0.31942976
   0.97712306  0.41680153  0.32170667
   0.54782722  0.55891518  0.31965324
   0.54846857  0.98799331  0.31901218
   0.97687053  0.55821108  0.32165649
   0.40636199  0.41716825  0.32019404
   0.58691447  0.28990644  0.48124722
   0.59607196  0.29628486  0.53552736
   0.66230226  0.44240854  0.45172352
   0.42708887  0.21076529  0.46790666
   0.65911634  0.20783978  0.45380054
unknown system                          
           1
     9.457087    0.002272    0.044741
    -4.731352    8.189273   -0.017875
     1.474175    0.915949   20.010244
   C    H    F 
    19     1     3
Direct configuration=   124
   0.12854006  0.98746680  0.32075904
   0.97728511  0.13901756  0.32086361
   0.82583782  0.83640036  0.32004558
   0.82605127  0.98792169  0.31996543
   0.97701699  0.83616300  0.32075280
   0.12856436  0.13887239  0.32097174
   0.27624531  0.98743596  0.32019481
   0.97732655  0.28666055  0.32137957
   0.67817079  0.68908271  0.31952385
   0.67870268  0.98811270  0.31917391
   0.97689727  0.68847175  0.32120885
   0.27630873  0.28652315  0.32077903
   0.40678680  0.98778187  0.31941551
   0.97723735  0.41687264  0.32170171
   0.54777984  0.55892725  0.31964362
   0.54841618  0.98794295  0.31900713
   0.97699064  0.55825415  0.32163278
   0.40635783  0.41719035  0.32016272
   0.58689218  0.28990236  0.48126081
   0.59606665  0.29627490  0.53555525
   0.66229213  0.44243068  0.45173333
   0.42704460  0.21072072  0.46791612
   0.65907981  0.20780295  0.45383944
unknown system                          
           1
     9.456870    0.002064    0.044793
    -4.731423    8.189057   -0.017896
     1.474226    0.915894   20.011495
   C    H    F 
    19     1     3
Direct configuration=   125
   0.12857707  0.98745946  0.32074782
   0.97730454  0.13906092  0.32089051
   0.82581600  0.83637916  0.32008830
   0.82604204  0.98797359  0.31997845
   0.97705565  0.83613824  0.32075848
   0.12856672  0.13891046  0.32095957
   0.27626526  0.98748505  0.32013620
   0.97727173  0.28666515  0.32142009
   0.67808076  0.68906632  0.31953672
   0.67861215  0.98800612  0.31915170
   0.97699737  0.68848050  0.32122125
   0.27633918  0.28650778  0.32070764
   0.40678137  0.98772836  0.31938703
   0.97746595  0.41701486  0.32169181
   0.54768507  0.55895139  0.31962437
   0.54831139  0.98784223  0.31899703
   0.97723087  0.55834031  0.32158537
   0.40634950  0.41723454  0.32010006
   0.58684760  0.28989419  0.48128798
   0.59605603  0.29625499  0.53561103
   0.66227189  0.44247497  0.45175293
   0.42695606  0.21063159  0.46793504
   0.65900675  0.20772928  0.45391726
unknown system                          
           1
     9.457028    0.002215    0.044755
    -4.731371    8.189214   -0.017881
     1.474189    0.915934   20.010587
   C    H    F 
    19     1     3
Direct configuration=   126
   0.12855020  0.98746479  0.32075596
   0.97729044  0.13902944  0.32087099
   0.82583184  0.83639455  0.32005730
   0.82604874  0.98793592  0.31996900
   0.97702759  0.83615621  0.32075436
   0.12856500  0.13888283  0.32096841
   0.27625078  0.98744942  0.32017874
   0.97731152  0.28666181  0.32139068
   0.67814611  0.68907822  0.31952738
   0.67867786  0.98808348  0.31916782
   0.97692471  0.68847415  0.32121225
   0.27631708  0.28651893  0.32075945
   0.40678531  0.98776720  0.31940770
   0.97730002  0.41691162  0.32169900
   0.54775386  0.55893387  0.31963834
   0.54838745  0.98791534  0.31900436
   0.97705650  0.55827777  0.32161978
   0.40635554  0.41720246  0.32014553
   0.58687996  0.28990012  0.48126826
   0.59606374  0.29626945  0.53557055
   0.66228658  0.44244283  0.45173870
   0.42702033  0.21069629  0.46792131
   0.65905978  0.20778275  0.45386078
unknown system                          
           1
     9.456971    0.002205    0.044703
    -4.731352    8.189277   -0.017824
     1.474069    0.916014   20.010559
   C    H    F 
    19     1     3
Direct configuration=   127
   0.12854362  0.98747229  0.32075359
   0.97728497  0.13903720  0.32087800
   0.82583942  0.83640377  0.32006261
   0.82604718  0.98792951  0.31997126
   0.97701957  0.83615489  0.32075810
   0.12857588  0.13887833  0.32096384
   0.27624840  0.98745926  0.32016994
   0.97731011  0.28666214  0.32139616
   0.67814220  0.68908217  0.31953055
   0.67867891  0.98806887  0.31916651
   0.97694108  0.68848006  0.32121187
   0.27630877  0.28651139  0.32074846
   0.40678594  0.98775810  0.31940181
   0.97733190  0.41692796  0.32169746
   0.54774228  0.55894008  0.31963398
   0.54837371  0.98789640  0.31900182
   0.97709495  0.55829427  0.32161401
   0.40635230  0.41720848  0.32013377
   0.58686636  0.28989713  0.48127565
   0.59605748  0.29627061  0.53557462
   0.66227182  0.44242801  0.45174513
   0.42701958  0.21069401  0.46792631
   0.65905450  0.20777451  0.45387119
unknown system                          
           1
     9.456800    0.002173    0.044546
    -4.731294    8.189469   -0.017654
     1.473707    0.916253   20.010475
   C    H    F 
    19     1     3
Direct configuration=   128
   0.12852387  0.98749480  0.32074647
   0.97726856  0.13906048  0.32089902
   0.82586217  0.83643142  0.32007855
   0.82604250  0.98791030  0.31997804
   0.97699552  0.83615092  0.32076934
   0.12860853  0.13886483  0.32095012
   0.27624126  0.98748879  0.32014355
   0.97730587  0.28666315  0.32141259
   0.67813049  0.68909401  0.31954008
   0.67868206  0.98802503  0.31916257
   0.97699018  0.68849779  0.32121074
   0.27628383  0.28648876  0.32071548
   0.40678781  0.98773080  0.31938414
   0.97742755  0.41697697  0.32169285
   0.54770753  0.55895873  0.31962091
   0.54833250  0.98783959  0.31899419
   0.97721031  0.55834379  0.32159670
   0.40634259  0.41722651  0.32009846
   0.58682558  0.28988816  0.48129784
   0.59603872  0.29627409  0.53558684
   0.66222752  0.44238355  0.45176441
   0.42701735  0.21068720  0.46794133
   0.65903864  0.20774979  0.45390242
unknown system                          
           1
     9.456689    0.002134    0.044482
    -4.731273    8.189600   -0.017590
     1.473552    0.916338   20.010429
   C    H    F 
    19     1     3
Direct configuration=   129
   0.12851616  0.98749828  0.32074391
   0.97726507  0.13906122  0.32090534
   0.82586531  0.83643400  0.32008229
   0.82604506  0.98790679  0.31998042
   0.97698796  0.83615042  0.32077353
   0.12861040  0.13886021  0.32094551
   0.27624693  0.98749695  0.32013619
   0.97730821  0.28666512  0.32141652
   0.67813026  0.68909932  0.31954322
   0.67867537  0.98801293  0.31916233
   0.97700348  0.68850626  0.32120971
   0.27628594  0.28649361  0.32070624
   0.40677403  0.98772293  0.31937874
   0.97745192  0.41698837  0.32169159
   0.54770410  0.55896907  0.31961680
   0.54833642  0.98782227  0.31899150
   0.97724253  0.55836152  0.32159259
   0.40633020  0.41722241  0.32008793
   0.58681519  0.28988279  0.48130484
   0.59603127  0.29627649  0.53558962
   0.66221228  0.44236590  0.45177041
   0.42701742  0.21068753  0.46794615
   0.65903543  0.20774504  0.45391126
unknown system                          
           1
     9.456357    0.002015    0.044291
    -4.731211    8.189996   -0.017398
     1.473085    0.916592   20.010292
   C    H    F 
    19     1     3
Direct configuration=   130
   0.12849300  0.98750870  0.32073622
   0.97725460  0.13906345  0.32092429
   0.82587473  0.83644176  0.32009349
   0.82605271  0.98789626  0.31998757
   0.97696529  0.83614891  0.32078609
   0.12861602  0.13884634  0.32093169
   0.27626394  0.98752146  0.32011411
   0.97731523  0.28667103  0.32142833
   0.67812960  0.68911526  0.31955262
   0.67865531  0.98797662  0.31916161
   0.97704340  0.68853167  0.32120661
   0.27629225  0.28650817  0.32067853
   0.40673269  0.98769934  0.31936255
   0.97752505  0.41702260  0.32168781
   0.54769380  0.55900009  0.31960447
   0.54834818  0.98777030  0.31898343
   0.97733919  0.55841472  0.32158027
   0.40629302  0.41721012  0.32005634
   0.58678399  0.28986666  0.48132585
   0.59600895  0.29628372  0.53559797
   0.66216657  0.44231295  0.45178843
   0.42701763  0.21068855  0.46796058
   0.65902581  0.20773077  0.45393779
unknown system                          
           1
     9.456308    0.001997    0.044263
    -4.731201    8.190054   -0.017369
     1.473016    0.916630   20.010272
   C    H    F 
    19     1     3
Direct configuration=   131
   0.12848960  0.98751023  0.32073509
   0.97725306  0.13906377  0.32092708
   0.82587612  0.83644290  0.32009514
   0.82605384  0.98789471  0.31998862
   0.97696195  0.83614869  0.32078794
   0.12861685  0.13884430  0.32092965
   0.27626645  0.98752507  0.32011086
   0.97731626  0.28667190  0.32143007
   0.67812950  0.68911761  0.31955400
   0.67865236  0.98797128  0.31916150
   0.97704927  0.68853542  0.32120615
   0.27629318  0.28651031  0.32067445
   0.40672660  0.98769587  0.31936016
   0.97753581  0.41702764  0.32168725
   0.54769229  0.55900466  0.31960266
   0.54834992  0.98776265  0.31898224
   0.97735342  0.55842255  0.32157846
   0.40628755  0.41720831  0.32005170
   0.58677940  0.28986429  0.48132894
   0.59600566  0.29628478  0.53559919
   0.66215984  0.44230516  0.45179108
   0.42701766  0.21068870  0.46796271
   0.65902439  0.20772867  0.45394169
unknown system                          
           1
     9.456129    0.001911    0.044148
    -4.731187    8.190309   -0.017263
     1.472736    0.916757   20.010118
   C    H    F 
    19     1     3
Direct configuration=   132
   0.12848167  0.98750879  0.32073045
   0.97725039  0.13905241  0.32093591
   0.82587110  0.83643679  0.32009964
   0.82606269  0.98789661  0.31999362
   0.97695814  0.83615058  0.32079509
   0.12860541  0.13884238  0.32092216
   0.27626286  0.98753555  0.32010003
   0.97732474  0.28667661  0.32143508
   0.67812732  0.68912264  0.31955914
   0.67865240  0.98795332  0.31916233
   0.97706847  0.68855106  0.32120384
   0.27629015  0.28651351  0.32066047
   0.40672103  0.98768374  0.31935113
   0.97756871  0.41704509  0.32168541
   0.54769044  0.55902112  0.31959580
   0.54833973  0.98773471  0.31897734
   0.97740016  0.55845355  0.32157402
   0.40628578  0.41721981  0.32003502
   0.58676938  0.28984951  0.48133871
   0.59599101  0.29629000  0.53560526
   0.66213711  0.44227836  0.45179974
   0.42701132  0.21068826  0.46797059
   0.65902096  0.20772505  0.45395589
unknown system                          
           1
     9.455594    0.001651    0.043800
    -4.731145    8.191074   -0.016945
     1.471894    0.917141   20.009658
   C    H    F 
    19     1     3
Direct configuration=   133
   0.12845790  0.98750446  0.32071651
   0.97724237  0.13901832  0.32096241
   0.82585607  0.83641846  0.32011314
   0.82608925  0.98790233  0.32000864
   0.97694671  0.83615623  0.32081653
   0.12857107  0.13883661  0.32089968
   0.27625212  0.98756701  0.32006752
   0.97735016  0.28669072  0.32145012
   0.67812077  0.68913774  0.31957455
   0.67865253  0.98789947  0.31916482
   0.97712607  0.68859799  0.32119689
   0.27628104  0.28652311  0.32061850
   0.40670429  0.98764736  0.31932402
   0.97766742  0.41709743  0.32167987
   0.54768490  0.55907050  0.31957523
   0.54830916  0.98765088  0.31896263
   0.97754039  0.55854656  0.32156069
   0.40628048  0.41725434  0.31998501
   0.58673933  0.28980519  0.48136803
   0.59594705  0.29630563  0.53562345
   0.66206893  0.44219798  0.45182572
   0.42699229  0.21068696  0.46799422
   0.65901065  0.20771417  0.45399847
unknown system                          
           1
     9.455383    0.001549    0.043663
    -4.731129    8.191376   -0.016820
     1.471563    0.917292   20.009476
   C    H    F 
    19     1     3
Direct configuration=   134
   0.12844853  0.98750276  0.32071102
   0.97723922  0.13900489  0.32097285
   0.82585014  0.83641124  0.32011845
   0.82609972  0.98790458  0.32001455
   0.97694221  0.83615846  0.32082499
   0.12855753  0.13883433  0.32089082
   0.27624788  0.98757941  0.32005471
   0.97736018  0.28669629  0.32145604
   0.67811818  0.68914369  0.31958062
   0.67865258  0.98787825  0.31916580
   0.97714877  0.68861648  0.32119415
   0.27627745  0.28652689  0.32060197
   0.40669770  0.98763302  0.31931333
   0.97770632  0.41711806  0.32167769
   0.54768271  0.55908996  0.31956712
   0.54829712  0.98761784  0.31895683
   0.97759566  0.55858321  0.32155543
   0.40627839  0.41726794  0.31996530
   0.58672749  0.28978773  0.48137959
   0.59592972  0.29631180  0.53563062
   0.66204206  0.44216630  0.45183596
   0.42698480  0.21068644  0.46800354
   0.65900660  0.20770988  0.45401526
unknown system                          
           1
     9.455308    0.001591    0.043529
    -4.731054    8.191455   -0.016736
     1.471271    0.917349   20.009370
   C    H    F 
    19     1     3
Direct configuration=   135
   0.12845103  0.98750556  0.32070575
   0.97723357  0.13900925  0.32097598
   0.82584164  0.83640794  0.32012286
   0.82609282  0.98789087  0.32002333
   0.97695503  0.83615805  0.32082891
   0.12855399  0.13884363  0.32088481
   0.27625828  0.98758269  0.32004538
   0.97737093  0.28669978  0.32145953
   0.67811419  0.68914456  0.31958466
   0.67865089  0.98786733  0.31916872
   0.97716612  0.68862620  0.32119212
   0.27628073  0.28653764  0.32058890
   0.40669651  0.98762109  0.31930377
   0.97773200  0.41713679  0.32167580
   0.54766499  0.55908401  0.31955986
   0.54827023  0.98759269  0.31894982
   0.97763186  0.55860469  0.32155392
   0.40629226  0.41729651  0.31995001
   0.58672464  0.28977067  0.48138637
   0.59591201  0.29631444  0.53564604
   0.66203442  0.44215904  0.45183947
   0.42695489  0.21067112  0.46801140
   0.65900794  0.20770490  0.45402924
unknown system                          
           1
     9.455209    0.001646    0.043355
    -4.730958    8.191558   -0.016629
     1.470893    0.917423   20.009233
   C    H    F 
    19     1     3
Direct configuration=   136
   0.12845427  0.98750919  0.32069892
   0.97722625  0.13901489  0.32098002
   0.82583064  0.83640365  0.32012857
   0.82608388  0.98787310  0.32003469
   0.97697164  0.83615751  0.32083399
   0.12854940  0.13885568  0.32087703
   0.27627174  0.98758694  0.32003328
   0.97738485  0.28670431  0.32146405
   0.67810902  0.68914569  0.31958990
   0.67864869  0.98785319  0.31917251
   0.97718860  0.68863880  0.32118950
   0.27628497  0.28655156  0.32057196
   0.40669497  0.98760564  0.31929138
   0.97776525  0.41716106  0.32167334
   0.54764203  0.55907631  0.31955045
   0.54823540  0.98756011  0.31894075
   0.97767874  0.55863250  0.32155196
   0.40631022  0.41733353  0.31993022
   0.58672094  0.28974858  0.48139515
   0.59588907  0.29631787  0.53566601
   0.66202453  0.44214965  0.45184402
   0.42691616  0.21065127  0.46802158
   0.65900968  0.20769844  0.45404736
unknown system                          
           1
     9.455182    0.001675    0.043244
    -4.730919    8.191568   -0.016567
     1.470657    0.917445   20.009213
   C    H    F 
    19     1     3
Direct configuration=   137
   0.12846200  0.98751412  0.32069500
   0.97722109  0.13901923  0.32098062
   0.82582702  0.83639928  0.32013191
   0.82607612  0.98786436  0.32004174
   0.97698141  0.83615758  0.32083525
   0.12855233  0.13886564  0.32087337
   0.27627662  0.98758733  0.32002718
   0.97739212  0.28671241  0.32146607
   0.67809888  0.68913821  0.31959235
   0.67863441  0.98784818  0.31917505
   0.97719973  0.68864436  0.32118834
   0.27629540  0.28656762  0.32056263
   0.40669304  0.98759673  0.31928431
   0.97778202  0.41717030  0.32167205
   0.54764184  0.55908265  0.31954500
   0.54822959  0.98754317  0.31893544
   0.97770110  0.55864274  0.32155158
   0.40630649  0.41734019  0.31991998
   0.58671687  0.28973874  0.48140081
   0.59587541  0.29631826  0.53567805
   0.66202225  0.44214697  0.45184538
   0.42689395  0.21063784  0.46802736
   0.65901129  0.20769354  0.45405721
unknown system                          
           1
     9.455118    0.001744    0.042980
    -4.730827    8.191592   -0.016421
     1.470096    0.917496   20.009166
   C    H    F 
    19     1     3
Direct configuration=   138
   0.12848028  0.98752580  0.32068570
   0.97720888  0.13902951  0.32098204
   0.82581843  0.83638894  0.32013981
   0.82605774  0.98784368  0.32005843
   0.97700453  0.83615776  0.32083823
   0.12855926  0.13888921  0.32086469
   0.27628817  0.98758825  0.32001274
   0.97740935  0.28673156  0.32147084
   0.67807487  0.68912051  0.31959815
   0.67860058  0.98783631  0.31918106
   0.97722609  0.68865751  0.32118558
   0.27632008  0.28660565  0.32054054
   0.40668846  0.98757566  0.31926757
   0.97782172  0.41719218  0.32166898
   0.54764138  0.55909766  0.31953208
   0.54821583  0.98750308  0.31892287
   0.97775402  0.55866697  0.32155067
   0.40629767  0.41735596  0.31989573
   0.58670724  0.28971544  0.48141423
   0.59584307  0.29631917  0.53570656
   0.66201683  0.44214063  0.45184859
   0.42684137  0.21060605  0.46804104
   0.65901511  0.20768196  0.45408053
unknown system                          
           1
     9.455107    0.001756    0.042937
    -4.730812    8.191595   -0.016398
     1.470005    0.917504   20.009159
   C    H    F 
    19     1     3
Direct configuration=   139
   0.12848327  0.98752771  0.32068418
   0.97720688  0.13903119  0.32098228
   0.82581703  0.83638725  0.32014110
   0.82605473  0.98784030  0.32006116
   0.97700831  0.83615779  0.32083871
   0.12856039  0.13889307  0.32086328
   0.27629006  0.98758841  0.32001038
   0.97741216  0.28673469  0.32147162
   0.67807095  0.68911761  0.31959910
   0.67859505  0.98783437  0.31918204
   0.97723040  0.68865966  0.32118513
   0.27632412  0.28661187  0.32053692
   0.40668772  0.98757221  0.31926483
   0.97782821  0.41719575  0.32166848
   0.54764130  0.55910011  0.31952997
   0.54821358  0.98749653  0.31892081
   0.97776267  0.55867093  0.32155052
   0.40629622  0.41735853  0.31989176
   0.58670567  0.28971163  0.48141642
   0.59583779  0.29631932  0.53571122
   0.66201594  0.44213959  0.45184912
   0.42683277  0.21060085  0.46804327
   0.65901573  0.20768007  0.45408434
unknown system                          
           1
     9.455148    0.001783    0.042812
    -4.730809    8.191553   -0.016336
     1.469749    0.917504   20.009121
   C    H    F 
    19     1     3
Direct configuration=   140
   0.12849614  0.98753955  0.32068044
   0.97720241  0.13903137  0.32098107
   0.82582032  0.83638017  0.32014495
   0.82604373  0.98783968  0.32006750
   0.97701234  0.83616362  0.32083688
   0.12857122  0.13890387  0.32086041
   0.27628929  0.98758734  0.32000537
   0.97741586  0.28674332  0.32147247
   0.67807209  0.68911825  0.31960048
   0.67859269  0.98783129  0.31918508
   0.97723785  0.68865798  0.32118466
   0.27632157  0.28661509  0.32052900
   0.40668604  0.98756327  0.31925810
   0.97784011  0.41720444  0.32166800
   0.54764210  0.55910439  0.31952469
   0.54820614  0.98748399  0.31891566
   0.97777678  0.55867564  0.32155114
   0.40629347  0.41736425  0.31988343
   0.58669370  0.28970890  0.48142465
   0.59582408  0.29631674  0.53571988
   0.66201389  0.44213245  0.45185016
   0.42682381  0.21058990  0.46804903
   0.65901533  0.20767394  0.45409358
unknown system                          
           1
     9.455272    0.001867    0.042436
    -4.730799    8.191425   -0.016150
     1.468981    0.917501   20.009007
   C    H    F 
    19     1     3
Direct configuration=   141
   0.12853474  0.98757509  0.32066923
   0.97718899  0.13903194  0.32097747
   0.82583017  0.83635896  0.32015650
   0.82601072  0.98783782  0.32008651
   0.97702444  0.83618109  0.32083139
   0.12860371  0.13893627  0.32085183
   0.27628699  0.98758415  0.31999036
   0.97742696  0.28676920  0.32147501
   0.67807551  0.68912017  0.31960464
   0.67858561  0.98782205  0.31919420
   0.97726017  0.68865294  0.32118324
   0.27631393  0.28662475  0.32050523
   0.40668103  0.98753644  0.31923792
   0.97787583  0.41723049  0.32166657
   0.54764449  0.55911721  0.31950884
   0.54818382  0.98744638  0.31890020
   0.97781910  0.55868977  0.32155299
   0.40628520  0.41738139  0.31985844
   0.58665780  0.28970070  0.48144936
   0.59578295  0.29630901  0.53574585
   0.66200772  0.44211105  0.45185329
   0.42679695  0.21055705  0.46806631
   0.65901411  0.20765553  0.45412129
